 # File generated with Atomsk by jamodeo on 2026-07-10 17:38:05
  
        8416  atoms
           2  atom types
 
      0.000000000000      33.281283000000  xlo xhi
      0.000000000000      37.527457000000  ylo yhi
      0.000000000000     120.000000000000  zlo zhi
 
Masses
 
            1   92.90638000             # Nb
            2   47.86700000             # Ti
 
Atoms # atomic
 
         1    1        4.853519328124       3.518199093750       0.487804800000
         2    1        6.240240562500       1.172733031250       2.439024000000
         3    1        0.693359951562       1.172733031250       0.487804800000
         4    1        2.080080187500       3.518199093750       2.439024000000
         5    1        7.626961796876       3.518199093750       1.463414400000
         6    1        3.466801421876       1.172733031250       1.463414400000
         7    1       13.173840078124       3.518199093750       0.487804800000
         8    1       14.560561312500       1.172733031250       2.439024000000
         9    1        9.013679703124       1.172733031250       0.487804800000
        10    1       10.400400937500       3.518199093750       2.439024000000
        11    1       15.947282546876       3.518199093750       1.463414400000
        12    1       11.787122171876       1.172733031250       1.463414400000
        13    1       21.494160828124       3.518199093750       0.487804800000
        14    1       22.880882062500       1.172733031250       2.439024000000
        15    1       17.334000453124       1.172733031250       0.487804800000
        16    1       18.720721687500       3.518199093750       2.439024000000
        17    1       24.267603296876       3.518199093750       1.463414400000
        18    1       20.107442921876       1.172733031250       1.463414400000
        19    1       29.814481578124       3.518199093750       0.487804800000
        20    1       31.201202812500       1.172733031250       2.439024000000
        21    1       25.654321203124       1.172733031250       0.487804800000
        22    1       27.041042437500       3.518199093750       2.439024000000
        23    1       32.587924046876       3.518199093750       1.463414400000
        24    1       28.427763671876       1.172733031250       1.463414400000
        25    1        4.853519328124       8.209131218750       0.487804800000
        26    1        6.240240562500       5.863665156250       2.439024000000
        27    1        0.693359951562       5.863665156250       0.487804800000
        28    1        2.080080187500       8.209131218750       2.439024000000
        29    1        7.626961796876       8.209131218750       1.463414400000
        30    1        3.466801421876       5.863665156250       1.463414400000
        31    1       13.173840078124       8.209131218750       0.487804800000
        32    1       14.560561312500       5.863665156250       2.439024000000
        33    1        9.013679703124       5.863665156250       0.487804800000
        34    1       10.400400937500       8.209131218750       2.439024000000
        35    1       15.947282546876       8.209131218750       1.463414400000
        36    1       11.787122171876       5.863665156250       1.463414400000
        37    1       21.494160828124       8.209131218750       0.487804800000
        38    1       22.880882062500       5.863665156250       2.439024000000
        39    1       17.334000453124       5.863665156250       0.487804800000
        40    1       18.720721687500       8.209131218750       2.439024000000
        41    1       24.267603296876       8.209131218750       1.463414400000
        42    1       20.107442921876       5.863665156250       1.463414400000
        43    1       29.814481578124       8.209131218750       0.487804800000
        44    1       31.201202812500       5.863665156250       2.439024000000
        45    1       25.654321203124       5.863665156250       0.487804800000
        46    1       27.041042437500       8.209131218750       2.439024000000
        47    1       32.587924046876       8.209131218750       1.463414400000
        48    1       28.427763671876       5.863665156250       1.463414400000
        49    1        4.853519328124      12.900063343750       0.487804800000
        50    1        6.240240562500      10.554597281250       2.439024000000
        51    1        0.693359951562      10.554597281250       0.487804800000
        52    1        2.080080187500      12.900063343750       2.439024000000
        53    1        7.626961796876      12.900063343750       1.463414400000
        54    1        3.466801421876      10.554597281250       1.463414400000
        55    1       13.173840078124      12.900063343750       0.487804800000
        56    1       14.560561312500      10.554597281250       2.439024000000
        57    1        9.013679703124      10.554597281250       0.487804800000
        58    1       10.400400937500      12.900063343750       2.439024000000
        59    1       15.947282546876      12.900063343750       1.463414400000
        60    1       11.787122171876      10.554597281250       1.463414400000
        61    1       21.494160828124      12.900063343750       0.487804800000
        62    1       22.880882062500      10.554597281250       2.439024000000
        63    1       17.334000453124      10.554597281250       0.487804800000
        64    1       18.720721687500      12.900063343750       2.439024000000
        65    1       24.267603296876      12.900063343750       1.463414400000
        66    1       20.107442921876      10.554597281250       1.463414400000
        67    1       29.814481578124      12.900063343750       0.487804800000
        68    1       31.201202812500      10.554597281250       2.439024000000
        69    1       25.654321203124      10.554597281250       0.487804800000
        70    1       27.041042437500      12.900063343750       2.439024000000
        71    1       32.587924046876      12.900063343750       1.463414400000
        72    1       28.427763671876      10.554597281250       1.463414400000
        73    1        4.853519328124      17.590995468750       0.487804800000
        74    1        6.240240562500      15.245529406250       2.439024000000
        75    1        0.693359951562      15.245529406250       0.487804800000
        76    1        2.080080187500      17.590995468750       2.439024000000
        77    1        7.626961796876      17.590995468750       1.463414400000
        78    1        3.466801421876      15.245529406250       1.463414400000
        79    1       13.173840078124      17.590995468750       0.487804800000
        80    1       14.560561312500      15.245529406250       2.439024000000
        81    1        9.013679703124      15.245529406250       0.487804800000
        82    1       10.400400937500      17.590995468750       2.439024000000
        83    1       15.947282546876      17.590995468750       1.463414400000
        84    1       11.787122171876      15.245529406250       1.463414400000
        85    1       21.494160828124      17.590995468750       0.487804800000
        86    1       22.880882062500      15.245529406250       2.439024000000
        87    1       17.334000453124      15.245529406250       0.487804800000
        88    1       18.720721687500      17.590995468750       2.439024000000
        89    1       24.267603296876      17.590995468750       1.463414400000
        90    1       20.107442921876      15.245529406250       1.463414400000
        91    1       29.814481578124      17.590995468750       0.487804800000
        92    1       31.201202812500      15.245529406250       2.439024000000
        93    1       25.654321203124      15.245529406250       0.487804800000
        94    1       27.041042437500      17.590995468750       2.439024000000
        95    1       32.587924046876      17.590995468750       1.463414400000
        96    1       28.427763671876      15.245529406250       1.463414400000
        97    1        4.853519328124      22.281927593750       0.487804800000
        98    1        6.240240562500      19.936461531250       2.439024000000
        99    1        0.693359951562      19.936461531250       0.487804800000
       100    1        2.080080187500      22.281927593750       2.439024000000
       101    1        7.626961796876      22.281927593750       1.463414400000
       102    1        3.466801421876      19.936461531250       1.463414400000
       103    1       13.173840078124      22.281927593750       0.487804800000
       104    1       14.560561312500      19.936461531250       2.439024000000
       105    1        9.013679703124      19.936461531250       0.487804800000
       106    1       10.400400937500      22.281927593750       2.439024000000
       107    1       15.947282546876      22.281927593750       1.463414400000
       108    1       11.787122171876      19.936461531250       1.463414400000
       109    1       21.494160828124      22.281927593750       0.487804800000
       110    1       22.880882062500      19.936461531250       2.439024000000
       111    1       17.334000453124      19.936461531250       0.487804800000
       112    1       18.720721687500      22.281927593750       2.439024000000
       113    1       24.267603296876      22.281927593750       1.463414400000
       114    1       20.107442921876      19.936461531250       1.463414400000
       115    1       29.814481578124      22.281927593750       0.487804800000
       116    1       31.201202812500      19.936461531250       2.439024000000
       117    1       25.654321203124      19.936461531250       0.487804800000
       118    1       27.041042437500      22.281927593750       2.439024000000
       119    1       32.587924046876      22.281927593750       1.463414400000
       120    1       28.427763671876      19.936461531250       1.463414400000
       121    1        4.853519328124      26.972859718750       0.487804800000
       122    1        6.240240562500      24.627393656250       2.439024000000
       123    1        0.693359951562      24.627393656250       0.487804800000
       124    1        2.080080187500      26.972859718750       2.439024000000
       125    1        7.626961796876      26.972859718750       1.463414400000
       126    1        3.466801421876      24.627393656250       1.463414400000
       127    1       13.173840078124      26.972859718750       0.487804800000
       128    1       14.560561312500      24.627393656250       2.439024000000
       129    1        9.013679703124      24.627393656250       0.487804800000
       130    1       10.400400937500      26.972859718750       2.439024000000
       131    1       15.947282546876      26.972859718750       1.463414400000
       132    1       11.787122171876      24.627393656250       1.463414400000
       133    1       21.494160828124      26.972859718750       0.487804800000
       134    1       22.880882062500      24.627393656250       2.439024000000
       135    1       17.334000453124      24.627393656250       0.487804800000
       136    1       18.720721687500      26.972859718750       2.439024000000
       137    1       24.267603296876      26.972859718750       1.463414400000
       138    1       20.107442921876      24.627393656250       1.463414400000
       139    1       29.814481578124      26.972859718750       0.487804800000
       140    1       31.201202812500      24.627393656250       2.439024000000
       141    1       25.654321203124      24.627393656250       0.487804800000
       142    1       27.041042437500      26.972859718750       2.439024000000
       143    1       32.587924046876      26.972859718750       1.463414400000
       144    1       28.427763671876      24.627393656250       1.463414400000
       145    1        4.853519328124      31.663791843750       0.487804800000
       146    1        6.240240562500      29.318325781250       2.439024000000
       147    1        0.693359951562      29.318325781250       0.487804800000
       148    1        2.080080187500      31.663791843750       2.439024000000
       149    1        7.626961796876      31.663791843750       1.463414400000
       150    1        3.466801421876      29.318325781250       1.463414400000
       151    1       13.173840078124      31.663791843750       0.487804800000
       152    1       14.560561312500      29.318325781250       2.439024000000
       153    1        9.013679703124      29.318325781250       0.487804800000
       154    1       10.400400937500      31.663791843750       2.439024000000
       155    1       15.947282546876      31.663791843750       1.463414400000
       156    1       11.787122171876      29.318325781250       1.463414400000
       157    1       21.494160828124      31.663791843750       0.487804800000
       158    1       22.880882062500      29.318325781250       2.439024000000
       159    1       17.334000453124      29.318325781250       0.487804800000
       160    1       18.720721687500      31.663791843750       2.439024000000
       161    1       24.267603296876      31.663791843750       1.463414400000
       162    1       20.107442921876      29.318325781250       1.463414400000
       163    1       29.814481578124      31.663791843750       0.487804800000
       164    1       31.201202812500      29.318325781250       2.439024000000
       165    1       25.654321203124      29.318325781250       0.487804800000
       166    1       27.041042437500      31.663791843750       2.439024000000
       167    1       32.587924046876      31.663791843750       1.463414400000
       168    1       28.427763671876      29.318325781250       1.463414400000
       169    1        4.853519328124      36.354723968750       0.487804800000
       170    1        6.240240562500      34.009257906250       2.439024000000
       171    1        0.693359951562      34.009257906250       0.487804800000
       172    1        2.080080187500      36.354723968750       2.439024000000
       173    1        7.626961796876      36.354723968750       1.463414400000
       174    1        3.466801421876      34.009257906250       1.463414400000
       175    1       13.173840078124      36.354723968750       0.487804800000
       176    1       14.560561312500      34.009257906250       2.439024000000
       177    1        9.013679703124      34.009257906250       0.487804800000
       178    1       10.400400937500      36.354723968750       2.439024000000
       179    1       15.947282546876      36.354723968750       1.463414400000
       180    1       11.787122171876      34.009257906250       1.463414400000
       181    1       21.494160828124      36.354723968750       0.487804800000
       182    1       22.880882062500      34.009257906250       2.439024000000
       183    1       17.334000453124      34.009257906250       0.487804800000
       184    1       18.720721687500      36.354723968750       2.439024000000
       185    1       24.267603296876      36.354723968750       1.463414400000
       186    1       20.107442921876      34.009257906250       1.463414400000
       187    1       29.814481578124      36.354723968750       0.487804800000
       188    1       31.201202812500      34.009257906250       2.439024000000
       189    1       25.654321203124      34.009257906250       0.487804800000
       190    1       27.041042437500      36.354723968750       2.439024000000
       191    1       32.587924046876      36.354723968750       1.463414400000
       192    1       28.427763671876      34.009257906250       1.463414400000
       193    1        4.853519328124       3.518199093750       3.414633600000
       194    1        6.240240562500       1.172733031250       5.365854000000
       195    1        0.693359951562       1.172733031250       3.414633600000
       196    1        2.080080187500       3.518199093750       5.365854000000
       197    1        7.626961796876       3.518199093750       4.390244400000
       198    1        3.466801421876       1.172733031250       4.390244400000
       199    1       13.173840078124       3.518199093750       3.414633600000
       200    1       14.560561312500       1.172733031250       5.365854000000
       201    1        9.013679703124       1.172733031250       3.414633600000
       202    1       10.400400937500       3.518199093750       5.365854000000
       203    1       15.947282546876       3.518199093750       4.390244400000
       204    1       11.787122171876       1.172733031250       4.390244400000
       205    1       21.494160828124       3.518199093750       3.414633600000
       206    1       22.880882062500       1.172733031250       5.365854000000
       207    1       17.334000453124       1.172733031250       3.414633600000
       208    1       18.720721687500       3.518199093750       5.365854000000
       209    1       24.267603296876       3.518199093750       4.390244400000
       210    1       20.107442921876       1.172733031250       4.390244400000
       211    1       29.814481578124       3.518199093750       3.414633600000
       212    1       31.201202812500       1.172733031250       5.365854000000
       213    1       25.654321203124       1.172733031250       3.414633600000
       214    1       27.041042437500       3.518199093750       5.365854000000
       215    1       32.587924046876       3.518199093750       4.390244400000
       216    1       28.427763671876       1.172733031250       4.390244400000
       217    1        4.853519328124       8.209131218750       3.414633600000
       218    1        6.240240562500       5.863665156250       5.365854000000
       219    1        0.693359951562       5.863665156250       3.414633600000
       220    1        2.080080187500       8.209131218750       5.365854000000
       221    1        7.626961796876       8.209131218750       4.390244400000
       222    1        3.466801421876       5.863665156250       4.390244400000
       223    1       13.173840078124       8.209131218750       3.414633600000
       224    1       14.560561312500       5.863665156250       5.365854000000
       225    1        9.013679703124       5.863665156250       3.414633600000
       226    1       10.400400937500       8.209131218750       5.365854000000
       227    1       15.947282546876       8.209131218750       4.390244400000
       228    1       11.787122171876       5.863665156250       4.390244400000
       229    1       21.494160828124       8.209131218750       3.414633600000
       230    1       22.880882062500       5.863665156250       5.365854000000
       231    1       17.334000453124       5.863665156250       3.414633600000
       232    1       18.720721687500       8.209131218750       5.365854000000
       233    1       24.267603296876       8.209131218750       4.390244400000
       234    1       20.107442921876       5.863665156250       4.390244400000
       235    1       29.814481578124       8.209131218750       3.414633600000
       236    1       31.201202812500       5.863665156250       5.365854000000
       237    1       25.654321203124       5.863665156250       3.414633600000
       238    1       27.041042437500       8.209131218750       5.365854000000
       239    1       32.587924046876       8.209131218750       4.390244400000
       240    1       28.427763671876       5.863665156250       4.390244400000
       241    1        4.853519328124      12.900063343750       3.414633600000
       242    1        6.240240562500      10.554597281250       5.365854000000
       243    1        0.693359951562      10.554597281250       3.414633600000
       244    1        2.080080187500      12.900063343750       5.365854000000
       245    1        7.626961796876      12.900063343750       4.390244400000
       246    1        3.466801421876      10.554597281250       4.390244400000
       247    1       13.173840078124      12.900063343750       3.414633600000
       248    1       14.560561312500      10.554597281250       5.365854000000
       249    1        9.013679703124      10.554597281250       3.414633600000
       250    1       10.400400937500      12.900063343750       5.365854000000
       251    1       15.947282546876      12.900063343750       4.390244400000
       252    1       11.787122171876      10.554597281250       4.390244400000
       253    1       21.494160828124      12.900063343750       3.414633600000
       254    1       22.880882062500      10.554597281250       5.365854000000
       255    1       17.334000453124      10.554597281250       3.414633600000
       256    1       18.720721687500      12.900063343750       5.365854000000
       257    1       24.267603296876      12.900063343750       4.390244400000
       258    1       20.107442921876      10.554597281250       4.390244400000
       259    1       29.814481578124      12.900063343750       3.414633600000
       260    1       31.201202812500      10.554597281250       5.365854000000
       261    1       25.654321203124      10.554597281250       3.414633600000
       262    1       27.041042437500      12.900063343750       5.365854000000
       263    1       32.587924046876      12.900063343750       4.390244400000
       264    1       28.427763671876      10.554597281250       4.390244400000
       265    1        4.853519328124      17.590995468750       3.414633600000
       266    1        6.240240562500      15.245529406250       5.365854000000
       267    1        0.693359951562      15.245529406250       3.414633600000
       268    1        2.080080187500      17.590995468750       5.365854000000
       269    1        7.626961796876      17.590995468750       4.390244400000
       270    1        3.466801421876      15.245529406250       4.390244400000
       271    1       13.173840078124      17.590995468750       3.414633600000
       272    1       14.560561312500      15.245529406250       5.365854000000
       273    1        9.013679703124      15.245529406250       3.414633600000
       274    1       10.400400937500      17.590995468750       5.365854000000
       275    1       15.947282546876      17.590995468750       4.390244400000
       276    1       11.787122171876      15.245529406250       4.390244400000
       277    1       21.494160828124      17.590995468750       3.414633600000
       278    1       22.880882062500      15.245529406250       5.365854000000
       279    1       17.334000453124      15.245529406250       3.414633600000
       280    1       18.720721687500      17.590995468750       5.365854000000
       281    1       24.267603296876      17.590995468750       4.390244400000
       282    1       20.107442921876      15.245529406250       4.390244400000
       283    1       29.814481578124      17.590995468750       3.414633600000
       284    1       31.201202812500      15.245529406250       5.365854000000
       285    1       25.654321203124      15.245529406250       3.414633600000
       286    1       27.041042437500      17.590995468750       5.365854000000
       287    1       32.587924046876      17.590995468750       4.390244400000
       288    1       28.427763671876      15.245529406250       4.390244400000
       289    1        4.853519328124      22.281927593750       3.414633600000
       290    1        6.240240562500      19.936461531250       5.365854000000
       291    1        0.693359951562      19.936461531250       3.414633600000
       292    1        2.080080187500      22.281927593750       5.365854000000
       293    1        7.626961796876      22.281927593750       4.390244400000
       294    1        3.466801421876      19.936461531250       4.390244400000
       295    1       13.173840078124      22.281927593750       3.414633600000
       296    1       14.560561312500      19.936461531250       5.365854000000
       297    1        9.013679703124      19.936461531250       3.414633600000
       298    1       10.400400937500      22.281927593750       5.365854000000
       299    1       15.947282546876      22.281927593750       4.390244400000
       300    1       11.787122171876      19.936461531250       4.390244400000
       301    1       21.494160828124      22.281927593750       3.414633600000
       302    1       22.880882062500      19.936461531250       5.365854000000
       303    1       17.334000453124      19.936461531250       3.414633600000
       304    1       18.720721687500      22.281927593750       5.365854000000
       305    1       24.267603296876      22.281927593750       4.390244400000
       306    1       20.107442921876      19.936461531250       4.390244400000
       307    1       29.814481578124      22.281927593750       3.414633600000
       308    1       31.201202812500      19.936461531250       5.365854000000
       309    1       25.654321203124      19.936461531250       3.414633600000
       310    1       27.041042437500      22.281927593750       5.365854000000
       311    1       32.587924046876      22.281927593750       4.390244400000
       312    1       28.427763671876      19.936461531250       4.390244400000
       313    1        4.853519328124      26.972859718750       3.414633600000
       314    1        6.240240562500      24.627393656250       5.365854000000
       315    1        0.693359951562      24.627393656250       3.414633600000
       316    1        2.080080187500      26.972859718750       5.365854000000
       317    1        7.626961796876      26.972859718750       4.390244400000
       318    1        3.466801421876      24.627393656250       4.390244400000
       319    1       13.173840078124      26.972859718750       3.414633600000
       320    1       14.560561312500      24.627393656250       5.365854000000
       321    1        9.013679703124      24.627393656250       3.414633600000
       322    1       10.400400937500      26.972859718750       5.365854000000
       323    1       15.947282546876      26.972859718750       4.390244400000
       324    1       11.787122171876      24.627393656250       4.390244400000
       325    1       21.494160828124      26.972859718750       3.414633600000
       326    1       22.880882062500      24.627393656250       5.365854000000
       327    1       17.334000453124      24.627393656250       3.414633600000
       328    1       18.720721687500      26.972859718750       5.365854000000
       329    1       24.267603296876      26.972859718750       4.390244400000
       330    1       20.107442921876      24.627393656250       4.390244400000
       331    1       29.814481578124      26.972859718750       3.414633600000
       332    1       31.201202812500      24.627393656250       5.365854000000
       333    1       25.654321203124      24.627393656250       3.414633600000
       334    1       27.041042437500      26.972859718750       5.365854000000
       335    1       32.587924046876      26.972859718750       4.390244400000
       336    1       28.427763671876      24.627393656250       4.390244400000
       337    1        4.853519328124      31.663791843750       3.414633600000
       338    1        6.240240562500      29.318325781250       5.365854000000
       339    1        0.693359951562      29.318325781250       3.414633600000
       340    1        2.080080187500      31.663791843750       5.365854000000
       341    1        7.626961796876      31.663791843750       4.390244400000
       342    1        3.466801421876      29.318325781250       4.390244400000
       343    1       13.173840078124      31.663791843750       3.414633600000
       344    1       14.560561312500      29.318325781250       5.365854000000
       345    1        9.013679703124      29.318325781250       3.414633600000
       346    1       10.400400937500      31.663791843750       5.365854000000
       347    1       15.947282546876      31.663791843750       4.390244400000
       348    1       11.787122171876      29.318325781250       4.390244400000
       349    1       21.494160828124      31.663791843750       3.414633600000
       350    1       22.880882062500      29.318325781250       5.365854000000
       351    1       17.334000453124      29.318325781250       3.414633600000
       352    1       18.720721687500      31.663791843750       5.365854000000
       353    1       24.267603296876      31.663791843750       4.390244400000
       354    1       20.107442921876      29.318325781250       4.390244400000
       355    1       29.814481578124      31.663791843750       3.414633600000
       356    1       31.201202812500      29.318325781250       5.365854000000
       357    1       25.654321203124      29.318325781250       3.414633600000
       358    1       27.041042437500      31.663791843750       5.365854000000
       359    1       32.587924046876      31.663791843750       4.390244400000
       360    1       28.427763671876      29.318325781250       4.390244400000
       361    1        4.853519328124      36.354723968750       3.414633600000
       362    1        6.240240562500      34.009257906250       5.365854000000
       363    1        0.693359951562      34.009257906250       3.414633600000
       364    1        2.080080187500      36.354723968750       5.365854000000
       365    1        7.626961796876      36.354723968750       4.390244400000
       366    1        3.466801421876      34.009257906250       4.390244400000
       367    1       13.173840078124      36.354723968750       3.414633600000
       368    1       14.560561312500      34.009257906250       5.365854000000
       369    1        9.013679703124      34.009257906250       3.414633600000
       370    1       10.400400937500      36.354723968750       5.365854000000
       371    1       15.947282546876      36.354723968750       4.390244400000
       372    1       11.787122171876      34.009257906250       4.390244400000
       373    1       21.494160828124      36.354723968750       3.414633600000
       374    1       22.880882062500      34.009257906250       5.365854000000
       375    1       17.334000453124      34.009257906250       3.414633600000
       376    1       18.720721687500      36.354723968750       5.365854000000
       377    1       24.267603296876      36.354723968750       4.390244400000
       378    1       20.107442921876      34.009257906250       4.390244400000
       379    1       29.814481578124      36.354723968750       3.414633600000
       380    1       31.201202812500      34.009257906250       5.365854000000
       381    1       25.654321203124      34.009257906250       3.414633600000
       382    1       27.041042437500      36.354723968750       5.365854000000
       383    1       32.587924046876      36.354723968750       4.390244400000
       384    1       28.427763671876      34.009257906250       4.390244400000
       385    1        4.853519328124       3.518199093750       6.341463600000
       386    1        6.240240562500       1.172733031250       8.292682800000
       387    1        0.693359951562       1.172733031250       6.341463600000
       388    1        2.080080187500       3.518199093750       8.292682800000
       389    1        7.626961796876       3.518199093750       7.317073200000
       390    1        3.466801421876       1.172733031250       7.317073200000
       391    1       13.173840078124       3.518199093750       6.341463600000
       392    1       14.560561312500       1.172733031250       8.292682800000
       393    1        9.013679703124       1.172733031250       6.341463600000
       394    1       10.400400937500       3.518199093750       8.292682800000
       395    1       15.947282546876       3.518199093750       7.317073200000
       396    1       11.787122171876       1.172733031250       7.317073200000
       397    1       21.494160828124       3.518199093750       6.341463600000
       398    1       22.880882062500       1.172733031250       8.292682800000
       399    1       17.334000453124       1.172733031250       6.341463600000
       400    1       18.720721687500       3.518199093750       8.292682800000
       401    1       24.267603296876       3.518199093750       7.317073200000
       402    1       20.107442921876       1.172733031250       7.317073200000
       403    1       29.814481578124       3.518199093750       6.341463600000
       404    1       31.201202812500       1.172733031250       8.292682800000
       405    1       25.654321203124       1.172733031250       6.341463600000
       406    1       27.041042437500       3.518199093750       8.292682800000
       407    1       32.587924046876       3.518199093750       7.317073200000
       408    1       28.427763671876       1.172733031250       7.317073200000
       409    1        4.853519328124       8.209131218750       6.341463600000
       410    1        6.240240562500       5.863665156250       8.292682800000
       411    1        0.693359951562       5.863665156250       6.341463600000
       412    1        2.080080187500       8.209131218750       8.292682800000
       413    1        7.626961796876       8.209131218750       7.317073200000
       414    1        3.466801421876       5.863665156250       7.317073200000
       415    1       13.173840078124       8.209131218750       6.341463600000
       416    1       14.560561312500       5.863665156250       8.292682800000
       417    1        9.013679703124       5.863665156250       6.341463600000
       418    1       10.400400937500       8.209131218750       8.292682800000
       419    1       15.947282546876       8.209131218750       7.317073200000
       420    1       11.787122171876       5.863665156250       7.317073200000
       421    1       21.494160828124       8.209131218750       6.341463600000
       422    1       22.880882062500       5.863665156250       8.292682800000
       423    1       17.334000453124       5.863665156250       6.341463600000
       424    1       18.720721687500       8.209131218750       8.292682800000
       425    1       24.267603296876       8.209131218750       7.317073200000
       426    1       20.107442921876       5.863665156250       7.317073200000
       427    1       29.814481578124       8.209131218750       6.341463600000
       428    1       31.201202812500       5.863665156250       8.292682800000
       429    1       25.654321203124       5.863665156250       6.341463600000
       430    1       27.041042437500       8.209131218750       8.292682800000
       431    1       32.587924046876       8.209131218750       7.317073200000
       432    1       28.427763671876       5.863665156250       7.317073200000
       433    1        4.853519328124      12.900063343750       6.341463600000
       434    1        6.240240562500      10.554597281250       8.292682800000
       435    1        0.693359951562      10.554597281250       6.341463600000
       436    1        2.080080187500      12.900063343750       8.292682800000
       437    1        7.626961796876      12.900063343750       7.317073200000
       438    1        3.466801421876      10.554597281250       7.317073200000
       439    1       13.173840078124      12.900063343750       6.341463600000
       440    1       14.560561312500      10.554597281250       8.292682800000
       441    1        9.013679703124      10.554597281250       6.341463600000
       442    1       10.400400937500      12.900063343750       8.292682800000
       443    1       15.947282546876      12.900063343750       7.317073200000
       444    1       11.787122171876      10.554597281250       7.317073200000
       445    1       21.494160828124      12.900063343750       6.341463600000
       446    1       22.880882062500      10.554597281250       8.292682800000
       447    1       17.334000453124      10.554597281250       6.341463600000
       448    1       18.720721687500      12.900063343750       8.292682800000
       449    1       24.267603296876      12.900063343750       7.317073200000
       450    1       20.107442921876      10.554597281250       7.317073200000
       451    1       29.814481578124      12.900063343750       6.341463600000
       452    1       31.201202812500      10.554597281250       8.292682800000
       453    1       25.654321203124      10.554597281250       6.341463600000
       454    1       27.041042437500      12.900063343750       8.292682800000
       455    1       32.587924046876      12.900063343750       7.317073200000
       456    1       28.427763671876      10.554597281250       7.317073200000
       457    1        4.853519328124      17.590995468750       6.341463600000
       458    1        6.240240562500      15.245529406250       8.292682800000
       459    1        0.693359951562      15.245529406250       6.341463600000
       460    1        2.080080187500      17.590995468750       8.292682800000
       461    1        7.626961796876      17.590995468750       7.317073200000
       462    1        3.466801421876      15.245529406250       7.317073200000
       463    1       13.173840078124      17.590995468750       6.341463600000
       464    1       14.560561312500      15.245529406250       8.292682800000
       465    1        9.013679703124      15.245529406250       6.341463600000
       466    1       10.400400937500      17.590995468750       8.292682800000
       467    1       15.947282546876      17.590995468750       7.317073200000
       468    1       11.787122171876      15.245529406250       7.317073200000
       469    1       21.494160828124      17.590995468750       6.341463600000
       470    1       22.880882062500      15.245529406250       8.292682800000
       471    1       17.334000453124      15.245529406250       6.341463600000
       472    1       18.720721687500      17.590995468750       8.292682800000
       473    1       24.267603296876      17.590995468750       7.317073200000
       474    1       20.107442921876      15.245529406250       7.317073200000
       475    1       29.814481578124      17.590995468750       6.341463600000
       476    1       31.201202812500      15.245529406250       8.292682800000
       477    1       25.654321203124      15.245529406250       6.341463600000
       478    1       27.041042437500      17.590995468750       8.292682800000
       479    1       32.587924046876      17.590995468750       7.317073200000
       480    1       28.427763671876      15.245529406250       7.317073200000
       481    1        4.853519328124      22.281927593750       6.341463600000
       482    1        6.240240562500      19.936461531250       8.292682800000
       483    1        0.693359951562      19.936461531250       6.341463600000
       484    1        2.080080187500      22.281927593750       8.292682800000
       485    1        7.626961796876      22.281927593750       7.317073200000
       486    1        3.466801421876      19.936461531250       7.317073200000
       487    1       13.173840078124      22.281927593750       6.341463600000
       488    1       14.560561312500      19.936461531250       8.292682800000
       489    1        9.013679703124      19.936461531250       6.341463600000
       490    1       10.400400937500      22.281927593750       8.292682800000
       491    1       15.947282546876      22.281927593750       7.317073200000
       492    1       11.787122171876      19.936461531250       7.317073200000
       493    1       21.494160828124      22.281927593750       6.341463600000
       494    1       22.880882062500      19.936461531250       8.292682800000
       495    1       17.334000453124      19.936461531250       6.341463600000
       496    1       18.720721687500      22.281927593750       8.292682800000
       497    1       24.267603296876      22.281927593750       7.317073200000
       498    1       20.107442921876      19.936461531250       7.317073200000
       499    1       29.814481578124      22.281927593750       6.341463600000
       500    1       31.201202812500      19.936461531250       8.292682800000
       501    1       25.654321203124      19.936461531250       6.341463600000
       502    1       27.041042437500      22.281927593750       8.292682800000
       503    1       32.587924046876      22.281927593750       7.317073200000
       504    1       28.427763671876      19.936461531250       7.317073200000
       505    1        4.853519328124      26.972859718750       6.341463600000
       506    1        6.240240562500      24.627393656250       8.292682800000
       507    1        0.693359951562      24.627393656250       6.341463600000
       508    1        2.080080187500      26.972859718750       8.292682800000
       509    1        7.626961796876      26.972859718750       7.317073200000
       510    1        3.466801421876      24.627393656250       7.317073200000
       511    1       13.173840078124      26.972859718750       6.341463600000
       512    1       14.560561312500      24.627393656250       8.292682800000
       513    1        9.013679703124      24.627393656250       6.341463600000
       514    1       10.400400937500      26.972859718750       8.292682800000
       515    1       15.947282546876      26.972859718750       7.317073200000
       516    1       11.787122171876      24.627393656250       7.317073200000
       517    1       21.494160828124      26.972859718750       6.341463600000
       518    1       22.880882062500      24.627393656250       8.292682800000
       519    1       17.334000453124      24.627393656250       6.341463600000
       520    1       18.720721687500      26.972859718750       8.292682800000
       521    1       24.267603296876      26.972859718750       7.317073200000
       522    1       20.107442921876      24.627393656250       7.317073200000
       523    1       29.814481578124      26.972859718750       6.341463600000
       524    1       31.201202812500      24.627393656250       8.292682800000
       525    1       25.654321203124      24.627393656250       6.341463600000
       526    1       27.041042437500      26.972859718750       8.292682800000
       527    1       32.587924046876      26.972859718750       7.317073200000
       528    1       28.427763671876      24.627393656250       7.317073200000
       529    1        4.853519328124      31.663791843750       6.341463600000
       530    1        6.240240562500      29.318325781250       8.292682800000
       531    1        0.693359951562      29.318325781250       6.341463600000
       532    1        2.080080187500      31.663791843750       8.292682800000
       533    1        7.626961796876      31.663791843750       7.317073200000
       534    1        3.466801421876      29.318325781250       7.317073200000
       535    1       13.173840078124      31.663791843750       6.341463600000
       536    1       14.560561312500      29.318325781250       8.292682800000
       537    1        9.013679703124      29.318325781250       6.341463600000
       538    1       10.400400937500      31.663791843750       8.292682800000
       539    1       15.947282546876      31.663791843750       7.317073200000
       540    1       11.787122171876      29.318325781250       7.317073200000
       541    1       21.494160828124      31.663791843750       6.341463600000
       542    1       22.880882062500      29.318325781250       8.292682800000
       543    1       17.334000453124      29.318325781250       6.341463600000
       544    1       18.720721687500      31.663791843750       8.292682800000
       545    1       24.267603296876      31.663791843750       7.317073200000
       546    1       20.107442921876      29.318325781250       7.317073200000
       547    1       29.814481578124      31.663791843750       6.341463600000
       548    1       31.201202812500      29.318325781250       8.292682800000
       549    1       25.654321203124      29.318325781250       6.341463600000
       550    1       27.041042437500      31.663791843750       8.292682800000
       551    1       32.587924046876      31.663791843750       7.317073200000
       552    1       28.427763671876      29.318325781250       7.317073200000
       553    1        4.853519328124      36.354723968750       6.341463600000
       554    1        6.240240562500      34.009257906250       8.292682800000
       555    1        0.693359951562      34.009257906250       6.341463600000
       556    1        2.080080187500      36.354723968750       8.292682800000
       557    1        7.626961796876      36.354723968750       7.317073200000
       558    1        3.466801421876      34.009257906250       7.317073200000
       559    1       13.173840078124      36.354723968750       6.341463600000
       560    1       14.560561312500      34.009257906250       8.292682800000
       561    1        9.013679703124      34.009257906250       6.341463600000
       562    1       10.400400937500      36.354723968750       8.292682800000
       563    1       15.947282546876      36.354723968750       7.317073200000
       564    1       11.787122171876      34.009257906250       7.317073200000
       565    1       21.494160828124      36.354723968750       6.341463600000
       566    1       22.880882062500      34.009257906250       8.292682800000
       567    1       17.334000453124      34.009257906250       6.341463600000
       568    1       18.720721687500      36.354723968750       8.292682800000
       569    1       24.267603296876      36.354723968750       7.317073200000
       570    1       20.107442921876      34.009257906250       7.317073200000
       571    1       29.814481578124      36.354723968750       6.341463600000
       572    1       31.201202812500      34.009257906250       8.292682800000
       573    1       25.654321203124      34.009257906250       6.341463600000
       574    1       27.041042437500      36.354723968750       8.292682800000
       575    1       32.587924046876      36.354723968750       7.317073200000
       576    1       28.427763671876      34.009257906250       7.317073200000
       577    1        4.853519328124       3.518199093750       9.268292400000
       578    1        6.240240562500       1.172733031250      11.219511600000
       579    1        0.693359951562       1.172733031250       9.268292400000
       580    1        2.080080187500       3.518199093750      11.219511600000
       581    1        7.626961796876       3.518199093750      10.243902000000
       582    1        3.466801421876       1.172733031250      10.243902000000
       583    1       13.173840078124       3.518199093750       9.268292400000
       584    1       14.560561312500       1.172733031250      11.219511600000
       585    1        9.013679703124       1.172733031250       9.268292400000
       586    1       10.400400937500       3.518199093750      11.219511600000
       587    1       15.947282546876       3.518199093750      10.243902000000
       588    1       11.787122171876       1.172733031250      10.243902000000
       589    1       21.494160828124       3.518199093750       9.268292400000
       590    1       22.880882062500       1.172733031250      11.219511600000
       591    1       17.334000453124       1.172733031250       9.268292400000
       592    1       18.720721687500       3.518199093750      11.219511600000
       593    1       24.267603296876       3.518199093750      10.243902000000
       594    1       20.107442921876       1.172733031250      10.243902000000
       595    1       29.814481578124       3.518199093750       9.268292400000
       596    1       31.201202812500       1.172733031250      11.219511600000
       597    1       25.654321203124       1.172733031250       9.268292400000
       598    1       27.041042437500       3.518199093750      11.219511600000
       599    1       32.587924046876       3.518199093750      10.243902000000
       600    1       28.427763671876       1.172733031250      10.243902000000
       601    1        4.853519328124       8.209131218750       9.268292400000
       602    1        6.240240562500       5.863665156250      11.219511600000
       603    1        0.693359951562       5.863665156250       9.268292400000
       604    1        2.080080187500       8.209131218750      11.219511600000
       605    1        7.626961796876       8.209131218750      10.243902000000
       606    1        3.466801421876       5.863665156250      10.243902000000
       607    1       13.173840078124       8.209131218750       9.268292400000
       608    1       14.560561312500       5.863665156250      11.219511600000
       609    1        9.013679703124       5.863665156250       9.268292400000
       610    1       10.400400937500       8.209131218750      11.219511600000
       611    1       15.947282546876       8.209131218750      10.243902000000
       612    1       11.787122171876       5.863665156250      10.243902000000
       613    1       21.494160828124       8.209131218750       9.268292400000
       614    1       22.880882062500       5.863665156250      11.219511600000
       615    1       17.334000453124       5.863665156250       9.268292400000
       616    1       18.720721687500       8.209131218750      11.219511600000
       617    1       24.267603296876       8.209131218750      10.243902000000
       618    1       20.107442921876       5.863665156250      10.243902000000
       619    1       29.814481578124       8.209131218750       9.268292400000
       620    1       31.201202812500       5.863665156250      11.219511600000
       621    1       25.654321203124       5.863665156250       9.268292400000
       622    1       27.041042437500       8.209131218750      11.219511600000
       623    1       32.587924046876       8.209131218750      10.243902000000
       624    1       28.427763671876       5.863665156250      10.243902000000
       625    1        4.853519328124      12.900063343750       9.268292400000
       626    1        6.240240562500      10.554597281250      11.219511600000
       627    1        0.693359951562      10.554597281250       9.268292400000
       628    1        2.080080187500      12.900063343750      11.219511600000
       629    1        7.626961796876      12.900063343750      10.243902000000
       630    1        3.466801421876      10.554597281250      10.243902000000
       631    1       13.173840078124      12.900063343750       9.268292400000
       632    1       14.560561312500      10.554597281250      11.219511600000
       633    1        9.013679703124      10.554597281250       9.268292400000
       634    1       10.400400937500      12.900063343750      11.219511600000
       635    1       15.947282546876      12.900063343750      10.243902000000
       636    1       11.787122171876      10.554597281250      10.243902000000
       637    1       21.494160828124      12.900063343750       9.268292400000
       638    1       22.880882062500      10.554597281250      11.219511600000
       639    1       17.334000453124      10.554597281250       9.268292400000
       640    1       18.720721687500      12.900063343750      11.219511600000
       641    1       24.267603296876      12.900063343750      10.243902000000
       642    1       20.107442921876      10.554597281250      10.243902000000
       643    1       29.814481578124      12.900063343750       9.268292400000
       644    1       31.201202812500      10.554597281250      11.219511600000
       645    1       25.654321203124      10.554597281250       9.268292400000
       646    1       27.041042437500      12.900063343750      11.219511600000
       647    1       32.587924046876      12.900063343750      10.243902000000
       648    1       28.427763671876      10.554597281250      10.243902000000
       649    1        4.853519328124      17.590995468750       9.268292400000
       650    1        6.240240562500      15.245529406250      11.219511600000
       651    1        0.693359951562      15.245529406250       9.268292400000
       652    1        2.080080187500      17.590995468750      11.219511600000
       653    1        7.626961796876      17.590995468750      10.243902000000
       654    1        3.466801421876      15.245529406250      10.243902000000
       655    1       13.173840078124      17.590995468750       9.268292400000
       656    1       14.560561312500      15.245529406250      11.219511600000
       657    1        9.013679703124      15.245529406250       9.268292400000
       658    1       10.400400937500      17.590995468750      11.219511600000
       659    1       15.947282546876      17.590995468750      10.243902000000
       660    1       11.787122171876      15.245529406250      10.243902000000
       661    1       21.494160828124      17.590995468750       9.268292400000
       662    1       22.880882062500      15.245529406250      11.219511600000
       663    1       17.334000453124      15.245529406250       9.268292400000
       664    1       18.720721687500      17.590995468750      11.219511600000
       665    1       24.267603296876      17.590995468750      10.243902000000
       666    1       20.107442921876      15.245529406250      10.243902000000
       667    1       29.814481578124      17.590995468750       9.268292400000
       668    1       31.201202812500      15.245529406250      11.219511600000
       669    1       25.654321203124      15.245529406250       9.268292400000
       670    1       27.041042437500      17.590995468750      11.219511600000
       671    1       32.587924046876      17.590995468750      10.243902000000
       672    1       28.427763671876      15.245529406250      10.243902000000
       673    1        4.853519328124      22.281927593750       9.268292400000
       674    1        6.240240562500      19.936461531250      11.219511600000
       675    1        0.693359951562      19.936461531250       9.268292400000
       676    1        2.080080187500      22.281927593750      11.219511600000
       677    1        7.626961796876      22.281927593750      10.243902000000
       678    1        3.466801421876      19.936461531250      10.243902000000
       679    1       13.173840078124      22.281927593750       9.268292400000
       680    1       14.560561312500      19.936461531250      11.219511600000
       681    1        9.013679703124      19.936461531250       9.268292400000
       682    1       10.400400937500      22.281927593750      11.219511600000
       683    1       15.947282546876      22.281927593750      10.243902000000
       684    1       11.787122171876      19.936461531250      10.243902000000
       685    1       21.494160828124      22.281927593750       9.268292400000
       686    1       22.880882062500      19.936461531250      11.219511600000
       687    1       17.334000453124      19.936461531250       9.268292400000
       688    1       18.720721687500      22.281927593750      11.219511600000
       689    1       24.267603296876      22.281927593750      10.243902000000
       690    1       20.107442921876      19.936461531250      10.243902000000
       691    1       29.814481578124      22.281927593750       9.268292400000
       692    1       31.201202812500      19.936461531250      11.219511600000
       693    1       25.654321203124      19.936461531250       9.268292400000
       694    1       27.041042437500      22.281927593750      11.219511600000
       695    1       32.587924046876      22.281927593750      10.243902000000
       696    1       28.427763671876      19.936461531250      10.243902000000
       697    1        4.853519328124      26.972859718750       9.268292400000
       698    1        6.240240562500      24.627393656250      11.219511600000
       699    1        0.693359951562      24.627393656250       9.268292400000
       700    1        2.080080187500      26.972859718750      11.219511600000
       701    1        7.626961796876      26.972859718750      10.243902000000
       702    1        3.466801421876      24.627393656250      10.243902000000
       703    1       13.173840078124      26.972859718750       9.268292400000
       704    1       14.560561312500      24.627393656250      11.219511600000
       705    1        9.013679703124      24.627393656250       9.268292400000
       706    1       10.400400937500      26.972859718750      11.219511600000
       707    1       15.947282546876      26.972859718750      10.243902000000
       708    1       11.787122171876      24.627393656250      10.243902000000
       709    1       21.494160828124      26.972859718750       9.268292400000
       710    1       22.880882062500      24.627393656250      11.219511600000
       711    1       17.334000453124      24.627393656250       9.268292400000
       712    1       18.720721687500      26.972859718750      11.219511600000
       713    1       24.267603296876      26.972859718750      10.243902000000
       714    1       20.107442921876      24.627393656250      10.243902000000
       715    1       29.814481578124      26.972859718750       9.268292400000
       716    1       31.201202812500      24.627393656250      11.219511600000
       717    1       25.654321203124      24.627393656250       9.268292400000
       718    1       27.041042437500      26.972859718750      11.219511600000
       719    1       32.587924046876      26.972859718750      10.243902000000
       720    1       28.427763671876      24.627393656250      10.243902000000
       721    1        4.853519328124      31.663791843750       9.268292400000
       722    1        6.240240562500      29.318325781250      11.219511600000
       723    1        0.693359951562      29.318325781250       9.268292400000
       724    1        2.080080187500      31.663791843750      11.219511600000
       725    1        7.626961796876      31.663791843750      10.243902000000
       726    1        3.466801421876      29.318325781250      10.243902000000
       727    1       13.173840078124      31.663791843750       9.268292400000
       728    1       14.560561312500      29.318325781250      11.219511600000
       729    1        9.013679703124      29.318325781250       9.268292400000
       730    1       10.400400937500      31.663791843750      11.219511600000
       731    1       15.947282546876      31.663791843750      10.243902000000
       732    1       11.787122171876      29.318325781250      10.243902000000
       733    1       21.494160828124      31.663791843750       9.268292400000
       734    1       22.880882062500      29.318325781250      11.219511600000
       735    1       17.334000453124      29.318325781250       9.268292400000
       736    1       18.720721687500      31.663791843750      11.219511600000
       737    1       24.267603296876      31.663791843750      10.243902000000
       738    1       20.107442921876      29.318325781250      10.243902000000
       739    1       29.814481578124      31.663791843750       9.268292400000
       740    1       31.201202812500      29.318325781250      11.219511600000
       741    1       25.654321203124      29.318325781250       9.268292400000
       742    1       27.041042437500      31.663791843750      11.219511600000
       743    1       32.587924046876      31.663791843750      10.243902000000
       744    1       28.427763671876      29.318325781250      10.243902000000
       745    1        4.853519328124      36.354723968750       9.268292400000
       746    1        6.240240562500      34.009257906250      11.219511600000
       747    1        0.693359951562      34.009257906250       9.268292400000
       748    1        2.080080187500      36.354723968750      11.219511600000
       749    1        7.626961796876      36.354723968750      10.243902000000
       750    1        3.466801421876      34.009257906250      10.243902000000
       751    1       13.173840078124      36.354723968750       9.268292400000
       752    1       14.560561312500      34.009257906250      11.219511600000
       753    1        9.013679703124      34.009257906250       9.268292400000
       754    1       10.400400937500      36.354723968750      11.219511600000
       755    1       15.947282546876      36.354723968750      10.243902000000
       756    1       11.787122171876      34.009257906250      10.243902000000
       757    1       21.494160828124      36.354723968750       9.268292400000
       758    1       22.880882062500      34.009257906250      11.219511600000
       759    1       17.334000453124      34.009257906250       9.268292400000
       760    1       18.720721687500      36.354723968750      11.219511600000
       761    1       24.267603296876      36.354723968750      10.243902000000
       762    1       20.107442921876      34.009257906250      10.243902000000
       763    1       29.814481578124      36.354723968750       9.268292400000
       764    1       31.201202812500      34.009257906250      11.219511600000
       765    1       25.654321203124      34.009257906250       9.268292400000
       766    1       27.041042437500      36.354723968750      11.219511600000
       767    1       32.587924046876      36.354723968750      10.243902000000
       768    1       28.427763671876      34.009257906250      10.243902000000
       769    1        4.853519328124       3.518199093750      12.195120000000
       770    1        6.240240562500       1.172733031250      14.146344000000
       771    1        0.693359951562       1.172733031250      12.195120000000
       772    1        2.080080187500       3.518199093750      14.146344000000
       773    1        7.626961796876       3.518199093750      13.170732000000
       774    1        3.466801421876       1.172733031250      13.170732000000
       775    1       13.173840078124       3.518199093750      12.195120000000
       776    1       14.560561312500       1.172733031250      14.146344000000
       777    1        9.013679703124       1.172733031250      12.195120000000
       778    1       10.400400937500       3.518199093750      14.146344000000
       779    1       15.947282546876       3.518199093750      13.170732000000
       780    1       11.787122171876       1.172733031250      13.170732000000
       781    1       21.494160828124       3.518199093750      12.195120000000
       782    1       22.880882062500       1.172733031250      14.146344000000
       783    1       17.334000453124       1.172733031250      12.195120000000
       784    1       18.720721687500       3.518199093750      14.146344000000
       785    1       24.267603296876       3.518199093750      13.170732000000
       786    1       20.107442921876       1.172733031250      13.170732000000
       787    1       29.814481578124       3.518199093750      12.195120000000
       788    1       31.201202812500       1.172733031250      14.146344000000
       789    1       25.654321203124       1.172733031250      12.195120000000
       790    1       27.041042437500       3.518199093750      14.146344000000
       791    1       32.587924046876       3.518199093750      13.170732000000
       792    1       28.427763671876       1.172733031250      13.170732000000
       793    1        4.853519328124       8.209131218750      12.195120000000
       794    1        6.240240562500       5.863665156250      14.146344000000
       795    1        0.693359951562       5.863665156250      12.195120000000
       796    1        2.080080187500       8.209131218750      14.146344000000
       797    1        7.626961796876       8.209131218750      13.170732000000
       798    1        3.466801421876       5.863665156250      13.170732000000
       799    1       13.173840078124       8.209131218750      12.195120000000
       800    1       14.560561312500       5.863665156250      14.146344000000
       801    1        9.013679703124       5.863665156250      12.195120000000
       802    1       10.400400937500       8.209131218750      14.146344000000
       803    1       15.947282546876       8.209131218750      13.170732000000
       804    1       11.787122171876       5.863665156250      13.170732000000
       805    1       21.494160828124       8.209131218750      12.195120000000
       806    1       22.880882062500       5.863665156250      14.146344000000
       807    1       17.334000453124       5.863665156250      12.195120000000
       808    1       18.720721687500       8.209131218750      14.146344000000
       809    1       24.267603296876       8.209131218750      13.170732000000
       810    1       20.107442921876       5.863665156250      13.170732000000
       811    1       29.814481578124       8.209131218750      12.195120000000
       812    1       31.201202812500       5.863665156250      14.146344000000
       813    1       25.654321203124       5.863665156250      12.195120000000
       814    1       27.041042437500       8.209131218750      14.146344000000
       815    1       32.587924046876       8.209131218750      13.170732000000
       816    1       28.427763671876       5.863665156250      13.170732000000
       817    1        4.853519328124      12.900063343750      12.195120000000
       818    1        6.240240562500      10.554597281250      14.146344000000
       819    1        0.693359951562      10.554597281250      12.195120000000
       820    1        2.080080187500      12.900063343750      14.146344000000
       821    1        7.626961796876      12.900063343750      13.170732000000
       822    1        3.466801421876      10.554597281250      13.170732000000
       823    1       13.173840078124      12.900063343750      12.195120000000
       824    1       14.560561312500      10.554597281250      14.146344000000
       825    1        9.013679703124      10.554597281250      12.195120000000
       826    1       10.400400937500      12.900063343750      14.146344000000
       827    1       15.947282546876      12.900063343750      13.170732000000
       828    1       11.787122171876      10.554597281250      13.170732000000
       829    1       21.494160828124      12.900063343750      12.195120000000
       830    1       22.880882062500      10.554597281250      14.146344000000
       831    1       17.334000453124      10.554597281250      12.195120000000
       832    1       18.720721687500      12.900063343750      14.146344000000
       833    1       24.267603296876      12.900063343750      13.170732000000
       834    1       20.107442921876      10.554597281250      13.170732000000
       835    1       29.814481578124      12.900063343750      12.195120000000
       836    1       31.201202812500      10.554597281250      14.146344000000
       837    1       25.654321203124      10.554597281250      12.195120000000
       838    1       27.041042437500      12.900063343750      14.146344000000
       839    1       32.587924046876      12.900063343750      13.170732000000
       840    1       28.427763671876      10.554597281250      13.170732000000
       841    1        4.853519328124      17.590995468750      12.195120000000
       842    1        6.240240562500      15.245529406250      14.146344000000
       843    1        0.693359951562      15.245529406250      12.195120000000
       844    1        2.080080187500      17.590995468750      14.146344000000
       845    1        7.626961796876      17.590995468750      13.170732000000
       846    1        3.466801421876      15.245529406250      13.170732000000
       847    1       13.173840078124      17.590995468750      12.195120000000
       848    1       14.560561312500      15.245529406250      14.146344000000
       849    1        9.013679703124      15.245529406250      12.195120000000
       850    1       10.400400937500      17.590995468750      14.146344000000
       851    1       15.947282546876      17.590995468750      13.170732000000
       852    1       11.787122171876      15.245529406250      13.170732000000
       853    1       21.494160828124      17.590995468750      12.195120000000
       854    1       22.880882062500      15.245529406250      14.146344000000
       855    1       17.334000453124      15.245529406250      12.195120000000
       856    1       18.720721687500      17.590995468750      14.146344000000
       857    1       24.267603296876      17.590995468750      13.170732000000
       858    1       20.107442921876      15.245529406250      13.170732000000
       859    1       29.814481578124      17.590995468750      12.195120000000
       860    1       31.201202812500      15.245529406250      14.146344000000
       861    1       25.654321203124      15.245529406250      12.195120000000
       862    1       27.041042437500      17.590995468750      14.146344000000
       863    1       32.587924046876      17.590995468750      13.170732000000
       864    1       28.427763671876      15.245529406250      13.170732000000
       865    1        4.853519328124      22.281927593750      12.195120000000
       866    1        6.240240562500      19.936461531250      14.146344000000
       867    1        0.693359951562      19.936461531250      12.195120000000
       868    1        2.080080187500      22.281927593750      14.146344000000
       869    1        7.626961796876      22.281927593750      13.170732000000
       870    1        3.466801421876      19.936461531250      13.170732000000
       871    1       13.173840078124      22.281927593750      12.195120000000
       872    1       14.560561312500      19.936461531250      14.146344000000
       873    1        9.013679703124      19.936461531250      12.195120000000
       874    1       10.400400937500      22.281927593750      14.146344000000
       875    1       15.947282546876      22.281927593750      13.170732000000
       876    1       11.787122171876      19.936461531250      13.170732000000
       877    1       21.494160828124      22.281927593750      12.195120000000
       878    1       22.880882062500      19.936461531250      14.146344000000
       879    1       17.334000453124      19.936461531250      12.195120000000
       880    1       18.720721687500      22.281927593750      14.146344000000
       881    1       24.267603296876      22.281927593750      13.170732000000
       882    1       20.107442921876      19.936461531250      13.170732000000
       883    1       29.814481578124      22.281927593750      12.195120000000
       884    1       31.201202812500      19.936461531250      14.146344000000
       885    1       25.654321203124      19.936461531250      12.195120000000
       886    1       27.041042437500      22.281927593750      14.146344000000
       887    1       32.587924046876      22.281927593750      13.170732000000
       888    1       28.427763671876      19.936461531250      13.170732000000
       889    1        4.853519328124      26.972859718750      12.195120000000
       890    1        6.240240562500      24.627393656250      14.146344000000
       891    1        0.693359951562      24.627393656250      12.195120000000
       892    1        2.080080187500      26.972859718750      14.146344000000
       893    1        7.626961796876      26.972859718750      13.170732000000
       894    1        3.466801421876      24.627393656250      13.170732000000
       895    1       13.173840078124      26.972859718750      12.195120000000
       896    1       14.560561312500      24.627393656250      14.146344000000
       897    1        9.013679703124      24.627393656250      12.195120000000
       898    1       10.400400937500      26.972859718750      14.146344000000
       899    1       15.947282546876      26.972859718750      13.170732000000
       900    1       11.787122171876      24.627393656250      13.170732000000
       901    1       21.494160828124      26.972859718750      12.195120000000
       902    1       22.880882062500      24.627393656250      14.146344000000
       903    1       17.334000453124      24.627393656250      12.195120000000
       904    1       18.720721687500      26.972859718750      14.146344000000
       905    1       24.267603296876      26.972859718750      13.170732000000
       906    1       20.107442921876      24.627393656250      13.170732000000
       907    1       29.814481578124      26.972859718750      12.195120000000
       908    1       31.201202812500      24.627393656250      14.146344000000
       909    1       25.654321203124      24.627393656250      12.195120000000
       910    1       27.041042437500      26.972859718750      14.146344000000
       911    1       32.587924046876      26.972859718750      13.170732000000
       912    1       28.427763671876      24.627393656250      13.170732000000
       913    1        4.853519328124      31.663791843750      12.195120000000
       914    1        6.240240562500      29.318325781250      14.146344000000
       915    1        0.693359951562      29.318325781250      12.195120000000
       916    1        2.080080187500      31.663791843750      14.146344000000
       917    1        7.626961796876      31.663791843750      13.170732000000
       918    1        3.466801421876      29.318325781250      13.170732000000
       919    1       13.173840078124      31.663791843750      12.195120000000
       920    1       14.560561312500      29.318325781250      14.146344000000
       921    1        9.013679703124      29.318325781250      12.195120000000
       922    1       10.400400937500      31.663791843750      14.146344000000
       923    1       15.947282546876      31.663791843750      13.170732000000
       924    1       11.787122171876      29.318325781250      13.170732000000
       925    1       21.494160828124      31.663791843750      12.195120000000
       926    1       22.880882062500      29.318325781250      14.146344000000
       927    1       17.334000453124      29.318325781250      12.195120000000
       928    1       18.720721687500      31.663791843750      14.146344000000
       929    1       24.267603296876      31.663791843750      13.170732000000
       930    1       20.107442921876      29.318325781250      13.170732000000
       931    1       29.814481578124      31.663791843750      12.195120000000
       932    1       31.201202812500      29.318325781250      14.146344000000
       933    1       25.654321203124      29.318325781250      12.195120000000
       934    1       27.041042437500      31.663791843750      14.146344000000
       935    1       32.587924046876      31.663791843750      13.170732000000
       936    1       28.427763671876      29.318325781250      13.170732000000
       937    1        4.853519328124      36.354723968750      12.195120000000
       938    1        6.240240562500      34.009257906250      14.146344000000
       939    1        0.693359951562      34.009257906250      12.195120000000
       940    1        2.080080187500      36.354723968750      14.146344000000
       941    1        7.626961796876      36.354723968750      13.170732000000
       942    1        3.466801421876      34.009257906250      13.170732000000
       943    1       13.173840078124      36.354723968750      12.195120000000
       944    1       14.560561312500      34.009257906250      14.146344000000
       945    1        9.013679703124      34.009257906250      12.195120000000
       946    1       10.400400937500      36.354723968750      14.146344000000
       947    1       15.947282546876      36.354723968750      13.170732000000
       948    1       11.787122171876      34.009257906250      13.170732000000
       949    1       21.494160828124      36.354723968750      12.195120000000
       950    1       22.880882062500      34.009257906250      14.146344000000
       951    1       17.334000453124      34.009257906250      12.195120000000
       952    1       18.720721687500      36.354723968750      14.146344000000
       953    1       24.267603296876      36.354723968750      13.170732000000
       954    1       20.107442921876      34.009257906250      13.170732000000
       955    1       29.814481578124      36.354723968750      12.195120000000
       956    1       31.201202812500      34.009257906250      14.146344000000
       957    1       25.654321203124      34.009257906250      12.195120000000
       958    1       27.041042437500      36.354723968750      14.146344000000
       959    1       32.587924046876      36.354723968750      13.170732000000
       960    1       28.427763671876      34.009257906250      13.170732000000
       961    1        4.853519328124       3.518199093750      15.121956000000
       962    1        6.240240562500       1.172733031250      17.073168000000
       963    1        0.693359951562       1.172733031250      15.121956000000
       964    1        2.080080187500       3.518199093750      17.073168000000
       965    1        7.626961796876       3.518199093750      16.097556000000
       966    1        3.466801421876       1.172733031250      16.097556000000
       967    1       13.173840078124       3.518199093750      15.121956000000
       968    1       14.560561312500       1.172733031250      17.073168000000
       969    1        9.013679703124       1.172733031250      15.121956000000
       970    1       10.400400937500       3.518199093750      17.073168000000
       971    1       15.947282546876       3.518199093750      16.097556000000
       972    1       11.787122171876       1.172733031250      16.097556000000
       973    1       21.494160828124       3.518199093750      15.121956000000
       974    1       22.880882062500       1.172733031250      17.073168000000
       975    1       17.334000453124       1.172733031250      15.121956000000
       976    1       18.720721687500       3.518199093750      17.073168000000
       977    1       24.267603296876       3.518199093750      16.097556000000
       978    1       20.107442921876       1.172733031250      16.097556000000
       979    1       29.814481578124       3.518199093750      15.121956000000
       980    1       31.201202812500       1.172733031250      17.073168000000
       981    1       25.654321203124       1.172733031250      15.121956000000
       982    1       27.041042437500       3.518199093750      17.073168000000
       983    1       32.587924046876       3.518199093750      16.097556000000
       984    1       28.427763671876       1.172733031250      16.097556000000
       985    1        4.853519328124       8.209131218750      15.121956000000
       986    1        6.240240562500       5.863665156250      17.073168000000
       987    1        0.693359951562       5.863665156250      15.121956000000
       988    1        2.080080187500       8.209131218750      17.073168000000
       989    1        7.626961796876       8.209131218750      16.097556000000
       990    1        3.466801421876       5.863665156250      16.097556000000
       991    1       13.173840078124       8.209131218750      15.121956000000
       992    1       14.560561312500       5.863665156250      17.073168000000
       993    1        9.013679703124       5.863665156250      15.121956000000
       994    1       10.400400937500       8.209131218750      17.073168000000
       995    1       15.947282546876       8.209131218750      16.097556000000
       996    1       11.787122171876       5.863665156250      16.097556000000
       997    1       21.494160828124       8.209131218750      15.121956000000
       998    1       22.880882062500       5.863665156250      17.073168000000
       999    1       17.334000453124       5.863665156250      15.121956000000
      1000    1       18.720721687500       8.209131218750      17.073168000000
      1001    1       24.267603296876       8.209131218750      16.097556000000
      1002    1       20.107442921876       5.863665156250      16.097556000000
      1003    1       29.814481578124       8.209131218750      15.121956000000
      1004    1       31.201202812500       5.863665156250      17.073168000000
      1005    1       25.654321203124       5.863665156250      15.121956000000
      1006    1       27.041042437500       8.209131218750      17.073168000000
      1007    1       32.587924046876       8.209131218750      16.097556000000
      1008    1       28.427763671876       5.863665156250      16.097556000000
      1009    1        4.853519328124      12.900063343750      15.121956000000
      1010    1        6.240240562500      10.554597281250      17.073168000000
      1011    1        0.693359951562      10.554597281250      15.121956000000
      1012    1        2.080080187500      12.900063343750      17.073168000000
      1013    1        7.626961796876      12.900063343750      16.097556000000
      1014    1        3.466801421876      10.554597281250      16.097556000000
      1015    1       13.173840078124      12.900063343750      15.121956000000
      1016    1       14.560561312500      10.554597281250      17.073168000000
      1017    1        9.013679703124      10.554597281250      15.121956000000
      1018    1       10.400400937500      12.900063343750      17.073168000000
      1019    1       15.947282546876      12.900063343750      16.097556000000
      1020    1       11.787122171876      10.554597281250      16.097556000000
      1021    1       21.494160828124      12.900063343750      15.121956000000
      1022    1       22.880882062500      10.554597281250      17.073168000000
      1023    1       17.334000453124      10.554597281250      15.121956000000
      1024    1       18.720721687500      12.900063343750      17.073168000000
      1025    1       24.267603296876      12.900063343750      16.097556000000
      1026    1       20.107442921876      10.554597281250      16.097556000000
      1027    1       29.814481578124      12.900063343750      15.121956000000
      1028    1       31.201202812500      10.554597281250      17.073168000000
      1029    1       25.654321203124      10.554597281250      15.121956000000
      1030    1       27.041042437500      12.900063343750      17.073168000000
      1031    1       32.587924046876      12.900063343750      16.097556000000
      1032    1       28.427763671876      10.554597281250      16.097556000000
      1033    1        4.853519328124      17.590995468750      15.121956000000
      1034    1        6.240240562500      15.245529406250      17.073168000000
      1035    1        0.693359951562      15.245529406250      15.121956000000
      1036    1        2.080080187500      17.590995468750      17.073168000000
      1037    1        7.626961796876      17.590995468750      16.097556000000
      1038    1        3.466801421876      15.245529406250      16.097556000000
      1039    1       13.173840078124      17.590995468750      15.121956000000
      1040    1       14.560561312500      15.245529406250      17.073168000000
      1041    1        9.013679703124      15.245529406250      15.121956000000
      1042    1       10.400400937500      17.590995468750      17.073168000000
      1043    1       15.947282546876      17.590995468750      16.097556000000
      1044    1       11.787122171876      15.245529406250      16.097556000000
      1045    1       21.494160828124      17.590995468750      15.121956000000
      1046    1       22.880882062500      15.245529406250      17.073168000000
      1047    1       17.334000453124      15.245529406250      15.121956000000
      1048    1       18.720721687500      17.590995468750      17.073168000000
      1049    1       24.267603296876      17.590995468750      16.097556000000
      1050    1       20.107442921876      15.245529406250      16.097556000000
      1051    1       29.814481578124      17.590995468750      15.121956000000
      1052    1       31.201202812500      15.245529406250      17.073168000000
      1053    1       25.654321203124      15.245529406250      15.121956000000
      1054    1       27.041042437500      17.590995468750      17.073168000000
      1055    1       32.587924046876      17.590995468750      16.097556000000
      1056    1       28.427763671876      15.245529406250      16.097556000000
      1057    1        4.853519328124      22.281927593750      15.121956000000
      1058    1        6.240240562500      19.936461531250      17.073168000000
      1059    1        0.693359951562      19.936461531250      15.121956000000
      1060    1        2.080080187500      22.281927593750      17.073168000000
      1061    1        7.626961796876      22.281927593750      16.097556000000
      1062    1        3.466801421876      19.936461531250      16.097556000000
      1063    1       13.173840078124      22.281927593750      15.121956000000
      1064    1       14.560561312500      19.936461531250      17.073168000000
      1065    1        9.013679703124      19.936461531250      15.121956000000
      1066    1       10.400400937500      22.281927593750      17.073168000000
      1067    1       15.947282546876      22.281927593750      16.097556000000
      1068    1       11.787122171876      19.936461531250      16.097556000000
      1069    1       21.494160828124      22.281927593750      15.121956000000
      1070    1       22.880882062500      19.936461531250      17.073168000000
      1071    1       17.334000453124      19.936461531250      15.121956000000
      1072    1       18.720721687500      22.281927593750      17.073168000000
      1073    1       24.267603296876      22.281927593750      16.097556000000
      1074    1       20.107442921876      19.936461531250      16.097556000000
      1075    1       29.814481578124      22.281927593750      15.121956000000
      1076    1       31.201202812500      19.936461531250      17.073168000000
      1077    1       25.654321203124      19.936461531250      15.121956000000
      1078    1       27.041042437500      22.281927593750      17.073168000000
      1079    1       32.587924046876      22.281927593750      16.097556000000
      1080    1       28.427763671876      19.936461531250      16.097556000000
      1081    1        4.853519328124      26.972859718750      15.121956000000
      1082    1        6.240240562500      24.627393656250      17.073168000000
      1083    1        0.693359951562      24.627393656250      15.121956000000
      1084    1        2.080080187500      26.972859718750      17.073168000000
      1085    1        7.626961796876      26.972859718750      16.097556000000
      1086    1        3.466801421876      24.627393656250      16.097556000000
      1087    1       13.173840078124      26.972859718750      15.121956000000
      1088    1       14.560561312500      24.627393656250      17.073168000000
      1089    1        9.013679703124      24.627393656250      15.121956000000
      1090    1       10.400400937500      26.972859718750      17.073168000000
      1091    1       15.947282546876      26.972859718750      16.097556000000
      1092    1       11.787122171876      24.627393656250      16.097556000000
      1093    1       21.494160828124      26.972859718750      15.121956000000
      1094    1       22.880882062500      24.627393656250      17.073168000000
      1095    1       17.334000453124      24.627393656250      15.121956000000
      1096    1       18.720721687500      26.972859718750      17.073168000000
      1097    1       24.267603296876      26.972859718750      16.097556000000
      1098    1       20.107442921876      24.627393656250      16.097556000000
      1099    1       29.814481578124      26.972859718750      15.121956000000
      1100    1       31.201202812500      24.627393656250      17.073168000000
      1101    1       25.654321203124      24.627393656250      15.121956000000
      1102    1       27.041042437500      26.972859718750      17.073168000000
      1103    1       32.587924046876      26.972859718750      16.097556000000
      1104    1       28.427763671876      24.627393656250      16.097556000000
      1105    1        4.853519328124      31.663791843750      15.121956000000
      1106    1        6.240240562500      29.318325781250      17.073168000000
      1107    1        0.693359951562      29.318325781250      15.121956000000
      1108    1        2.080080187500      31.663791843750      17.073168000000
      1109    1        7.626961796876      31.663791843750      16.097556000000
      1110    1        3.466801421876      29.318325781250      16.097556000000
      1111    1       13.173840078124      31.663791843750      15.121956000000
      1112    1       14.560561312500      29.318325781250      17.073168000000
      1113    1        9.013679703124      29.318325781250      15.121956000000
      1114    1       10.400400937500      31.663791843750      17.073168000000
      1115    1       15.947282546876      31.663791843750      16.097556000000
      1116    1       11.787122171876      29.318325781250      16.097556000000
      1117    1       21.494160828124      31.663791843750      15.121956000000
      1118    1       22.880882062500      29.318325781250      17.073168000000
      1119    1       17.334000453124      29.318325781250      15.121956000000
      1120    1       18.720721687500      31.663791843750      17.073168000000
      1121    1       24.267603296876      31.663791843750      16.097556000000
      1122    1       20.107442921876      29.318325781250      16.097556000000
      1123    1       29.814481578124      31.663791843750      15.121956000000
      1124    1       31.201202812500      29.318325781250      17.073168000000
      1125    1       25.654321203124      29.318325781250      15.121956000000
      1126    1       27.041042437500      31.663791843750      17.073168000000
      1127    1       32.587924046876      31.663791843750      16.097556000000
      1128    1       28.427763671876      29.318325781250      16.097556000000
      1129    1        4.853519328124      36.354723968750      15.121956000000
      1130    1        6.240240562500      34.009257906250      17.073168000000
      1131    1        0.693359951562      34.009257906250      15.121956000000
      1132    1        2.080080187500      36.354723968750      17.073168000000
      1133    1        7.626961796876      36.354723968750      16.097556000000
      1134    1        3.466801421876      34.009257906250      16.097556000000
      1135    1       13.173840078124      36.354723968750      15.121956000000
      1136    1       14.560561312500      34.009257906250      17.073168000000
      1137    1        9.013679703124      34.009257906250      15.121956000000
      1138    1       10.400400937500      36.354723968750      17.073168000000
      1139    1       15.947282546876      36.354723968750      16.097556000000
      1140    1       11.787122171876      34.009257906250      16.097556000000
      1141    1       21.494160828124      36.354723968750      15.121956000000
      1142    1       22.880882062500      34.009257906250      17.073168000000
      1143    1       17.334000453124      34.009257906250      15.121956000000
      1144    1       18.720721687500      36.354723968750      17.073168000000
      1145    1       24.267603296876      36.354723968750      16.097556000000
      1146    1       20.107442921876      34.009257906250      16.097556000000
      1147    1       29.814481578124      36.354723968750      15.121956000000
      1148    1       31.201202812500      34.009257906250      17.073168000000
      1149    1       25.654321203124      34.009257906250      15.121956000000
      1150    1       27.041042437500      36.354723968750      17.073168000000
      1151    1       32.587924046876      36.354723968750      16.097556000000
      1152    1       28.427763671876      34.009257906250      16.097556000000
      1153    1        4.853519328124       3.518199093750      18.048780000000
      1154    1        6.240240562500       1.172733031250      20.000004000000
      1155    1        0.693359951562       1.172733031250      18.048780000000
      1156    1        2.080080187500       3.518199093750      20.000004000000
      1157    1        7.626961796876       3.518199093750      19.024392000000
      1158    1        3.466801421876       1.172733031250      19.024392000000
      1159    1       13.173840078124       3.518199093750      18.048780000000
      1160    1       14.560561312500       1.172733031250      20.000004000000
      1161    1        9.013679703124       1.172733031250      18.048780000000
      1162    1       10.400400937500       3.518199093750      20.000004000000
      1163    1       15.947282546876       3.518199093750      19.024392000000
      1164    1       11.787122171876       1.172733031250      19.024392000000
      1165    1       21.494160828124       3.518199093750      18.048780000000
      1166    1       22.880882062500       1.172733031250      20.000004000000
      1167    1       17.334000453124       1.172733031250      18.048780000000
      1168    1       18.720721687500       3.518199093750      20.000004000000
      1169    1       24.267603296876       3.518199093750      19.024392000000
      1170    1       20.107442921876       1.172733031250      19.024392000000
      1171    1       29.814481578124       3.518199093750      18.048780000000
      1172    1       31.201202812500       1.172733031250      20.000004000000
      1173    1       25.654321203124       1.172733031250      18.048780000000
      1174    1       27.041042437500       3.518199093750      20.000004000000
      1175    1       32.587924046876       3.518199093750      19.024392000000
      1176    1       28.427763671876       1.172733031250      19.024392000000
      1177    1        4.853519328124       8.209131218750      18.048780000000
      1178    1        6.240240562500       5.863665156250      20.000004000000
      1179    1        0.693359951562       5.863665156250      18.048780000000
      1180    1        2.080080187500       8.209131218750      20.000004000000
      1181    1        7.626961796876       8.209131218750      19.024392000000
      1182    1        3.466801421876       5.863665156250      19.024392000000
      1183    1       13.173840078124       8.209131218750      18.048780000000
      1184    1       14.560561312500       5.863665156250      20.000004000000
      1185    1        9.013679703124       5.863665156250      18.048780000000
      1186    1       10.400400937500       8.209131218750      20.000004000000
      1187    1       15.947282546876       8.209131218750      19.024392000000
      1188    1       11.787122171876       5.863665156250      19.024392000000
      1189    1       21.494160828124       8.209131218750      18.048780000000
      1190    1       22.880882062500       5.863665156250      20.000004000000
      1191    1       17.334000453124       5.863665156250      18.048780000000
      1192    1       18.720721687500       8.209131218750      20.000004000000
      1193    1       24.267603296876       8.209131218750      19.024392000000
      1194    1       20.107442921876       5.863665156250      19.024392000000
      1195    1       29.814481578124       8.209131218750      18.048780000000
      1196    1       31.201202812500       5.863665156250      20.000004000000
      1197    1       25.654321203124       5.863665156250      18.048780000000
      1198    1       27.041042437500       8.209131218750      20.000004000000
      1199    1       32.587924046876       8.209131218750      19.024392000000
      1200    1       28.427763671876       5.863665156250      19.024392000000
      1201    1        4.853519328124      12.900063343750      18.048780000000
      1202    1        6.240240562500      10.554597281250      20.000004000000
      1203    1        0.693359951562      10.554597281250      18.048780000000
      1204    1        2.080080187500      12.900063343750      20.000004000000
      1205    1        7.626961796876      12.900063343750      19.024392000000
      1206    1        3.466801421876      10.554597281250      19.024392000000
      1207    1       13.173840078124      12.900063343750      18.048780000000
      1208    1       14.560561312500      10.554597281250      20.000004000000
      1209    1        9.013679703124      10.554597281250      18.048780000000
      1210    1       10.400400937500      12.900063343750      20.000004000000
      1211    1       15.947282546876      12.900063343750      19.024392000000
      1212    1       11.787122171876      10.554597281250      19.024392000000
      1213    1       21.494160828124      12.900063343750      18.048780000000
      1214    1       22.880882062500      10.554597281250      20.000004000000
      1215    1       17.334000453124      10.554597281250      18.048780000000
      1216    1       18.720721687500      12.900063343750      20.000004000000
      1217    1       24.267603296876      12.900063343750      19.024392000000
      1218    1       20.107442921876      10.554597281250      19.024392000000
      1219    1       29.814481578124      12.900063343750      18.048780000000
      1220    1       31.201202812500      10.554597281250      20.000004000000
      1221    1       25.654321203124      10.554597281250      18.048780000000
      1222    1       27.041042437500      12.900063343750      20.000004000000
      1223    1       32.587924046876      12.900063343750      19.024392000000
      1224    1       28.427763671876      10.554597281250      19.024392000000
      1225    1        4.853519328124      17.590995468750      18.048780000000
      1226    1        6.240240562500      15.245529406250      20.000004000000
      1227    1        0.693359951562      15.245529406250      18.048780000000
      1228    1        2.080080187500      17.590995468750      20.000004000000
      1229    1        7.626961796876      17.590995468750      19.024392000000
      1230    1        3.466801421876      15.245529406250      19.024392000000
      1231    1       13.173840078124      17.590995468750      18.048780000000
      1232    1       14.560561312500      15.245529406250      20.000004000000
      1233    1        9.013679703124      15.245529406250      18.048780000000
      1234    1       10.400400937500      17.590995468750      20.000004000000
      1235    1       15.947282546876      17.590995468750      19.024392000000
      1236    1       11.787122171876      15.245529406250      19.024392000000
      1237    1       21.494160828124      17.590995468750      18.048780000000
      1238    1       22.880882062500      15.245529406250      20.000004000000
      1239    1       17.334000453124      15.245529406250      18.048780000000
      1240    1       18.720721687500      17.590995468750      20.000004000000
      1241    1       24.267603296876      17.590995468750      19.024392000000
      1242    1       20.107442921876      15.245529406250      19.024392000000
      1243    1       29.814481578124      17.590995468750      18.048780000000
      1244    1       31.201202812500      15.245529406250      20.000004000000
      1245    1       25.654321203124      15.245529406250      18.048780000000
      1246    1       27.041042437500      17.590995468750      20.000004000000
      1247    1       32.587924046876      17.590995468750      19.024392000000
      1248    1       28.427763671876      15.245529406250      19.024392000000
      1249    1        4.853519328124      22.281927593750      18.048780000000
      1250    1        6.240240562500      19.936461531250      20.000004000000
      1251    1        0.693359951562      19.936461531250      18.048780000000
      1252    1        2.080080187500      22.281927593750      20.000004000000
      1253    1        7.626961796876      22.281927593750      19.024392000000
      1254    1        3.466801421876      19.936461531250      19.024392000000
      1255    1       13.173840078124      22.281927593750      18.048780000000
      1256    1       14.560561312500      19.936461531250      20.000004000000
      1257    1        9.013679703124      19.936461531250      18.048780000000
      1258    1       10.400400937500      22.281927593750      20.000004000000
      1259    1       15.947282546876      22.281927593750      19.024392000000
      1260    1       11.787122171876      19.936461531250      19.024392000000
      1261    1       21.494160828124      22.281927593750      18.048780000000
      1262    1       22.880882062500      19.936461531250      20.000004000000
      1263    1       17.334000453124      19.936461531250      18.048780000000
      1264    1       18.720721687500      22.281927593750      20.000004000000
      1265    1       24.267603296876      22.281927593750      19.024392000000
      1266    1       20.107442921876      19.936461531250      19.024392000000
      1267    1       29.814481578124      22.281927593750      18.048780000000
      1268    1       31.201202812500      19.936461531250      20.000004000000
      1269    1       25.654321203124      19.936461531250      18.048780000000
      1270    1       27.041042437500      22.281927593750      20.000004000000
      1271    1       32.587924046876      22.281927593750      19.024392000000
      1272    1       28.427763671876      19.936461531250      19.024392000000
      1273    1        4.853519328124      26.972859718750      18.048780000000
      1274    1        6.240240562500      24.627393656250      20.000004000000
      1275    1        0.693359951562      24.627393656250      18.048780000000
      1276    1        2.080080187500      26.972859718750      20.000004000000
      1277    1        7.626961796876      26.972859718750      19.024392000000
      1278    1        3.466801421876      24.627393656250      19.024392000000
      1279    1       13.173840078124      26.972859718750      18.048780000000
      1280    1       14.560561312500      24.627393656250      20.000004000000
      1281    1        9.013679703124      24.627393656250      18.048780000000
      1282    1       10.400400937500      26.972859718750      20.000004000000
      1283    1       15.947282546876      26.972859718750      19.024392000000
      1284    1       11.787122171876      24.627393656250      19.024392000000
      1285    1       21.494160828124      26.972859718750      18.048780000000
      1286    1       22.880882062500      24.627393656250      20.000004000000
      1287    1       17.334000453124      24.627393656250      18.048780000000
      1288    1       18.720721687500      26.972859718750      20.000004000000
      1289    1       24.267603296876      26.972859718750      19.024392000000
      1290    1       20.107442921876      24.627393656250      19.024392000000
      1291    1       29.814481578124      26.972859718750      18.048780000000
      1292    1       31.201202812500      24.627393656250      20.000004000000
      1293    1       25.654321203124      24.627393656250      18.048780000000
      1294    1       27.041042437500      26.972859718750      20.000004000000
      1295    1       32.587924046876      26.972859718750      19.024392000000
      1296    1       28.427763671876      24.627393656250      19.024392000000
      1297    1        4.853519328124      31.663791843750      18.048780000000
      1298    1        6.240240562500      29.318325781250      20.000004000000
      1299    1        0.693359951562      29.318325781250      18.048780000000
      1300    1        2.080080187500      31.663791843750      20.000004000000
      1301    1        7.626961796876      31.663791843750      19.024392000000
      1302    1        3.466801421876      29.318325781250      19.024392000000
      1303    1       13.173840078124      31.663791843750      18.048780000000
      1304    1       14.560561312500      29.318325781250      20.000004000000
      1305    1        9.013679703124      29.318325781250      18.048780000000
      1306    1       10.400400937500      31.663791843750      20.000004000000
      1307    1       15.947282546876      31.663791843750      19.024392000000
      1308    1       11.787122171876      29.318325781250      19.024392000000
      1309    1       21.494160828124      31.663791843750      18.048780000000
      1310    1       22.880882062500      29.318325781250      20.000004000000
      1311    1       17.334000453124      29.318325781250      18.048780000000
      1312    1       18.720721687500      31.663791843750      20.000004000000
      1313    1       24.267603296876      31.663791843750      19.024392000000
      1314    1       20.107442921876      29.318325781250      19.024392000000
      1315    1       29.814481578124      31.663791843750      18.048780000000
      1316    1       31.201202812500      29.318325781250      20.000004000000
      1317    1       25.654321203124      29.318325781250      18.048780000000
      1318    1       27.041042437500      31.663791843750      20.000004000000
      1319    1       32.587924046876      31.663791843750      19.024392000000
      1320    1       28.427763671876      29.318325781250      19.024392000000
      1321    1        4.853519328124      36.354723968750      18.048780000000
      1322    1        6.240240562500      34.009257906250      20.000004000000
      1323    1        0.693359951562      34.009257906250      18.048780000000
      1324    1        2.080080187500      36.354723968750      20.000004000000
      1325    1        7.626961796876      36.354723968750      19.024392000000
      1326    1        3.466801421876      34.009257906250      19.024392000000
      1327    1       13.173840078124      36.354723968750      18.048780000000
      1328    1       14.560561312500      34.009257906250      20.000004000000
      1329    1        9.013679703124      34.009257906250      18.048780000000
      1330    1       10.400400937500      36.354723968750      20.000004000000
      1331    1       15.947282546876      36.354723968750      19.024392000000
      1332    1       11.787122171876      34.009257906250      19.024392000000
      1333    1       21.494160828124      36.354723968750      18.048780000000
      1334    1       22.880882062500      34.009257906250      20.000004000000
      1335    1       17.334000453124      34.009257906250      18.048780000000
      1336    1       18.720721687500      36.354723968750      20.000004000000
      1337    1       24.267603296876      36.354723968750      19.024392000000
      1338    1       20.107442921876      34.009257906250      19.024392000000
      1339    1       29.814481578124      36.354723968750      18.048780000000
      1340    1       31.201202812500      34.009257906250      20.000004000000
      1341    1       25.654321203124      34.009257906250      18.048780000000
      1342    1       27.041042437500      36.354723968750      20.000004000000
      1343    1       32.587924046876      36.354723968750      19.024392000000
      1344    1       28.427763671876      34.009257906250      19.024392000000
      1345    1        4.853519328124       3.518199093750      20.975616000000
      1346    1        6.240240562500       1.172733031250      22.926828000000
      1347    1        0.693359951562       1.172733031250      20.975616000000
      1348    1        2.080080187500       3.518199093750      22.926828000000
      1349    1        7.626961796876       3.518199093750      21.951216000000
      1350    1        3.466801421876       1.172733031250      21.951216000000
      1351    1       13.173840078124       3.518199093750      20.975616000000
      1352    1       14.560561312500       1.172733031250      22.926828000000
      1353    1        9.013679703124       1.172733031250      20.975616000000
      1354    1       10.400400937500       3.518199093750      22.926828000000
      1355    1       15.947282546876       3.518199093750      21.951216000000
      1356    1       11.787122171876       1.172733031250      21.951216000000
      1357    1       21.494160828124       3.518199093750      20.975616000000
      1358    1       22.880882062500       1.172733031250      22.926828000000
      1359    1       17.334000453124       1.172733031250      20.975616000000
      1360    1       18.720721687500       3.518199093750      22.926828000000
      1361    1       24.267603296876       3.518199093750      21.951216000000
      1362    1       20.107442921876       1.172733031250      21.951216000000
      1363    1       29.814481578124       3.518199093750      20.975616000000
      1364    1       31.201202812500       1.172733031250      22.926828000000
      1365    1       25.654321203124       1.172733031250      20.975616000000
      1366    1       27.041042437500       3.518199093750      22.926828000000
      1367    1       32.587924046876       3.518199093750      21.951216000000
      1368    1       28.427763671876       1.172733031250      21.951216000000
      1369    1        4.853519328124       8.209131218750      20.975616000000
      1370    1        6.240240562500       5.863665156250      22.926828000000
      1371    1        0.693359951562       5.863665156250      20.975616000000
      1372    1        2.080080187500       8.209131218750      22.926828000000
      1373    1        7.626961796876       8.209131218750      21.951216000000
      1374    1        3.466801421876       5.863665156250      21.951216000000
      1375    1       13.173840078124       8.209131218750      20.975616000000
      1376    1       14.560561312500       5.863665156250      22.926828000000
      1377    1        9.013679703124       5.863665156250      20.975616000000
      1378    1       10.400400937500       8.209131218750      22.926828000000
      1379    1       15.947282546876       8.209131218750      21.951216000000
      1380    1       11.787122171876       5.863665156250      21.951216000000
      1381    1       21.494160828124       8.209131218750      20.975616000000
      1382    1       22.880882062500       5.863665156250      22.926828000000
      1383    1       17.334000453124       5.863665156250      20.975616000000
      1384    1       18.720721687500       8.209131218750      22.926828000000
      1385    1       24.267603296876       8.209131218750      21.951216000000
      1386    1       20.107442921876       5.863665156250      21.951216000000
      1387    1       29.814481578124       8.209131218750      20.975616000000
      1388    1       31.201202812500       5.863665156250      22.926828000000
      1389    1       25.654321203124       5.863665156250      20.975616000000
      1390    1       27.041042437500       8.209131218750      22.926828000000
      1391    1       32.587924046876       8.209131218750      21.951216000000
      1392    1       28.427763671876       5.863665156250      21.951216000000
      1393    1        4.853519328124      12.900063343750      20.975616000000
      1394    1        6.240240562500      10.554597281250      22.926828000000
      1395    1        0.693359951562      10.554597281250      20.975616000000
      1396    1        2.080080187500      12.900063343750      22.926828000000
      1397    1        7.626961796876      12.900063343750      21.951216000000
      1398    1        3.466801421876      10.554597281250      21.951216000000
      1399    1       13.173840078124      12.900063343750      20.975616000000
      1400    1       14.560561312500      10.554597281250      22.926828000000
      1401    1        9.013679703124      10.554597281250      20.975616000000
      1402    1       10.400400937500      12.900063343750      22.926828000000
      1403    1       15.947282546876      12.900063343750      21.951216000000
      1404    1       11.787122171876      10.554597281250      21.951216000000
      1405    1       21.494160828124      12.900063343750      20.975616000000
      1406    1       22.880882062500      10.554597281250      22.926828000000
      1407    1       17.334000453124      10.554597281250      20.975616000000
      1408    1       18.720721687500      12.900063343750      22.926828000000
      1409    1       24.267603296876      12.900063343750      21.951216000000
      1410    1       20.107442921876      10.554597281250      21.951216000000
      1411    1       29.814481578124      12.900063343750      20.975616000000
      1412    1       31.201202812500      10.554597281250      22.926828000000
      1413    1       25.654321203124      10.554597281250      20.975616000000
      1414    1       27.041042437500      12.900063343750      22.926828000000
      1415    1       32.587924046876      12.900063343750      21.951216000000
      1416    1       28.427763671876      10.554597281250      21.951216000000
      1417    1        4.853519328124      17.590995468750      20.975616000000
      1418    1        6.240240562500      15.245529406250      22.926828000000
      1419    1        0.693359951562      15.245529406250      20.975616000000
      1420    1        2.080080187500      17.590995468750      22.926828000000
      1421    1        7.626961796876      17.590995468750      21.951216000000
      1422    1        3.466801421876      15.245529406250      21.951216000000
      1423    1       13.173840078124      17.590995468750      20.975616000000
      1424    1       14.560561312500      15.245529406250      22.926828000000
      1425    1        9.013679703124      15.245529406250      20.975616000000
      1426    1       10.400400937500      17.590995468750      22.926828000000
      1427    1       15.947282546876      17.590995468750      21.951216000000
      1428    1       11.787122171876      15.245529406250      21.951216000000
      1429    1       21.494160828124      17.590995468750      20.975616000000
      1430    1       22.880882062500      15.245529406250      22.926828000000
      1431    1       17.334000453124      15.245529406250      20.975616000000
      1432    1       18.720721687500      17.590995468750      22.926828000000
      1433    1       24.267603296876      17.590995468750      21.951216000000
      1434    1       20.107442921876      15.245529406250      21.951216000000
      1435    1       29.814481578124      17.590995468750      20.975616000000
      1436    1       31.201202812500      15.245529406250      22.926828000000
      1437    1       25.654321203124      15.245529406250      20.975616000000
      1438    1       27.041042437500      17.590995468750      22.926828000000
      1439    1       32.587924046876      17.590995468750      21.951216000000
      1440    1       28.427763671876      15.245529406250      21.951216000000
      1441    1        4.853519328124      22.281927593750      20.975616000000
      1442    1        6.240240562500      19.936461531250      22.926828000000
      1443    1        0.693359951562      19.936461531250      20.975616000000
      1444    1        2.080080187500      22.281927593750      22.926828000000
      1445    1        7.626961796876      22.281927593750      21.951216000000
      1446    1        3.466801421876      19.936461531250      21.951216000000
      1447    1       13.173840078124      22.281927593750      20.975616000000
      1448    1       14.560561312500      19.936461531250      22.926828000000
      1449    1        9.013679703124      19.936461531250      20.975616000000
      1450    1       10.400400937500      22.281927593750      22.926828000000
      1451    1       15.947282546876      22.281927593750      21.951216000000
      1452    1       11.787122171876      19.936461531250      21.951216000000
      1453    1       21.494160828124      22.281927593750      20.975616000000
      1454    1       22.880882062500      19.936461531250      22.926828000000
      1455    1       17.334000453124      19.936461531250      20.975616000000
      1456    1       18.720721687500      22.281927593750      22.926828000000
      1457    1       24.267603296876      22.281927593750      21.951216000000
      1458    1       20.107442921876      19.936461531250      21.951216000000
      1459    1       29.814481578124      22.281927593750      20.975616000000
      1460    1       31.201202812500      19.936461531250      22.926828000000
      1461    1       25.654321203124      19.936461531250      20.975616000000
      1462    1       27.041042437500      22.281927593750      22.926828000000
      1463    1       32.587924046876      22.281927593750      21.951216000000
      1464    1       28.427763671876      19.936461531250      21.951216000000
      1465    1        4.853519328124      26.972859718750      20.975616000000
      1466    1        6.240240562500      24.627393656250      22.926828000000
      1467    1        0.693359951562      24.627393656250      20.975616000000
      1468    1        2.080080187500      26.972859718750      22.926828000000
      1469    1        7.626961796876      26.972859718750      21.951216000000
      1470    1        3.466801421876      24.627393656250      21.951216000000
      1471    1       13.173840078124      26.972859718750      20.975616000000
      1472    1       14.560561312500      24.627393656250      22.926828000000
      1473    1        9.013679703124      24.627393656250      20.975616000000
      1474    1       10.400400937500      26.972859718750      22.926828000000
      1475    1       15.947282546876      26.972859718750      21.951216000000
      1476    1       11.787122171876      24.627393656250      21.951216000000
      1477    1       21.494160828124      26.972859718750      20.975616000000
      1478    1       22.880882062500      24.627393656250      22.926828000000
      1479    1       17.334000453124      24.627393656250      20.975616000000
      1480    1       18.720721687500      26.972859718750      22.926828000000
      1481    1       24.267603296876      26.972859718750      21.951216000000
      1482    1       20.107442921876      24.627393656250      21.951216000000
      1483    1       29.814481578124      26.972859718750      20.975616000000
      1484    1       31.201202812500      24.627393656250      22.926828000000
      1485    1       25.654321203124      24.627393656250      20.975616000000
      1486    1       27.041042437500      26.972859718750      22.926828000000
      1487    1       32.587924046876      26.972859718750      21.951216000000
      1488    1       28.427763671876      24.627393656250      21.951216000000
      1489    1        4.853519328124      31.663791843750      20.975616000000
      1490    1        6.240240562500      29.318325781250      22.926828000000
      1491    1        0.693359951562      29.318325781250      20.975616000000
      1492    1        2.080080187500      31.663791843750      22.926828000000
      1493    1        7.626961796876      31.663791843750      21.951216000000
      1494    1        3.466801421876      29.318325781250      21.951216000000
      1495    1       13.173840078124      31.663791843750      20.975616000000
      1496    1       14.560561312500      29.318325781250      22.926828000000
      1497    1        9.013679703124      29.318325781250      20.975616000000
      1498    1       10.400400937500      31.663791843750      22.926828000000
      1499    1       15.947282546876      31.663791843750      21.951216000000
      1500    1       11.787122171876      29.318325781250      21.951216000000
      1501    1       21.494160828124      31.663791843750      20.975616000000
      1502    1       22.880882062500      29.318325781250      22.926828000000
      1503    1       17.334000453124      29.318325781250      20.975616000000
      1504    1       18.720721687500      31.663791843750      22.926828000000
      1505    1       24.267603296876      31.663791843750      21.951216000000
      1506    1       20.107442921876      29.318325781250      21.951216000000
      1507    1       29.814481578124      31.663791843750      20.975616000000
      1508    1       31.201202812500      29.318325781250      22.926828000000
      1509    1       25.654321203124      29.318325781250      20.975616000000
      1510    1       27.041042437500      31.663791843750      22.926828000000
      1511    1       32.587924046876      31.663791843750      21.951216000000
      1512    1       28.427763671876      29.318325781250      21.951216000000
      1513    1        4.853519328124      36.354723968750      20.975616000000
      1514    1        6.240240562500      34.009257906250      22.926828000000
      1515    1        0.693359951562      34.009257906250      20.975616000000
      1516    1        2.080080187500      36.354723968750      22.926828000000
      1517    1        7.626961796876      36.354723968750      21.951216000000
      1518    1        3.466801421876      34.009257906250      21.951216000000
      1519    1       13.173840078124      36.354723968750      20.975616000000
      1520    1       14.560561312500      34.009257906250      22.926828000000
      1521    1        9.013679703124      34.009257906250      20.975616000000
      1522    1       10.400400937500      36.354723968750      22.926828000000
      1523    1       15.947282546876      36.354723968750      21.951216000000
      1524    1       11.787122171876      34.009257906250      21.951216000000
      1525    1       21.494160828124      36.354723968750      20.975616000000
      1526    1       22.880882062500      34.009257906250      22.926828000000
      1527    1       17.334000453124      34.009257906250      20.975616000000
      1528    1       18.720721687500      36.354723968750      22.926828000000
      1529    1       24.267603296876      36.354723968750      21.951216000000
      1530    1       20.107442921876      34.009257906250      21.951216000000
      1531    1       29.814481578124      36.354723968750      20.975616000000
      1532    1       31.201202812500      34.009257906250      22.926828000000
      1533    1       25.654321203124      34.009257906250      20.975616000000
      1534    1       27.041042437500      36.354723968750      22.926828000000
      1535    1       32.587924046876      36.354723968750      21.951216000000
      1536    1       28.427763671876      34.009257906250      21.951216000000
      1537    1        4.853519328124       3.518199093750      23.902440000000
      1538    1        0.693359951562       1.172733031250      23.902440000000
      1539    1        7.626961796876       3.518199093750      24.878052000000
      1540    1        3.466801421876       1.172733031250      24.878052000000
      1541    1       13.173840078124       3.518199093750      23.902440000000
      1542    1        9.013679703124       1.172733031250      23.902440000000
      1543    1       15.947282546876       3.518199093750      24.878052000000
      1544    1       11.787122171876       1.172733031250      24.878052000000
      1545    1       21.494160828124       3.518199093750      23.902440000000
      1546    1       17.334000453124       1.172733031250      23.902440000000
      1547    1       24.267603296876       3.518199093750      24.878052000000
      1548    1       20.107442921876       1.172733031250      24.878052000000
      1549    1       29.814481578124       3.518199093750      23.902440000000
      1550    1       25.654321203124       1.172733031250      23.902440000000
      1551    1       32.587924046876       3.518199093750      24.878052000000
      1552    1       28.427763671876       1.172733031250      24.878052000000
      1553    1        4.853519328124       8.209131218750      23.902440000000
      1554    1        0.693359951562       5.863665156250      23.902440000000
      1555    1        7.626961796876       8.209131218750      24.878052000000
      1556    1        3.466801421876       5.863665156250      24.878052000000
      1557    1       13.173840078124       8.209131218750      23.902440000000
      1558    1        9.013679703124       5.863665156250      23.902440000000
      1559    1       15.947282546876       8.209131218750      24.878052000000
      1560    1       11.787122171876       5.863665156250      24.878052000000
      1561    1       21.494160828124       8.209131218750      23.902440000000
      1562    1       17.334000453124       5.863665156250      23.902440000000
      1563    1       24.267603296876       8.209131218750      24.878052000000
      1564    1       20.107442921876       5.863665156250      24.878052000000
      1565    1       29.814481578124       8.209131218750      23.902440000000
      1566    1       25.654321203124       5.863665156250      23.902440000000
      1567    1       32.587924046876       8.209131218750      24.878052000000
      1568    1       28.427763671876       5.863665156250      24.878052000000
      1569    1        4.853519328124      12.900063343750      23.902440000000
      1570    1        0.693359951562      10.554597281250      23.902440000000
      1571    1        7.626961796876      12.900063343750      24.878052000000
      1572    1        3.466801421876      10.554597281250      24.878052000000
      1573    1       13.173840078124      12.900063343750      23.902440000000
      1574    1        9.013679703124      10.554597281250      23.902440000000
      1575    1       15.947282546876      12.900063343750      24.878052000000
      1576    1       11.787122171876      10.554597281250      24.878052000000
      1577    1       21.494160828124      12.900063343750      23.902440000000
      1578    1       17.334000453124      10.554597281250      23.902440000000
      1579    1       24.267603296876      12.900063343750      24.878052000000
      1580    1       20.107442921876      10.554597281250      24.878052000000
      1581    1       29.814481578124      12.900063343750      23.902440000000
      1582    1       25.654321203124      10.554597281250      23.902440000000
      1583    1       32.587924046876      12.900063343750      24.878052000000
      1584    1       28.427763671876      10.554597281250      24.878052000000
      1585    1        4.853519328124      17.590995468750      23.902440000000
      1586    1        0.693359951562      15.245529406250      23.902440000000
      1587    1        7.626961796876      17.590995468750      24.878052000000
      1588    1        3.466801421876      15.245529406250      24.878052000000
      1589    1       13.173840078124      17.590995468750      23.902440000000
      1590    1        9.013679703124      15.245529406250      23.902440000000
      1591    1       15.947282546876      17.590995468750      24.878052000000
      1592    1       11.787122171876      15.245529406250      24.878052000000
      1593    1       21.494160828124      17.590995468750      23.902440000000
      1594    1       17.334000453124      15.245529406250      23.902440000000
      1595    1       24.267603296876      17.590995468750      24.878052000000
      1596    1       20.107442921876      15.245529406250      24.878052000000
      1597    1       29.814481578124      17.590995468750      23.902440000000
      1598    1       25.654321203124      15.245529406250      23.902440000000
      1599    1       32.587924046876      17.590995468750      24.878052000000
      1600    1       28.427763671876      15.245529406250      24.878052000000
      1601    1        4.853519328124      22.281927593750      23.902440000000
      1602    1        0.693359951562      19.936461531250      23.902440000000
      1603    1        7.626961796876      22.281927593750      24.878052000000
      1604    1        3.466801421876      19.936461531250      24.878052000000
      1605    1       13.173840078124      22.281927593750      23.902440000000
      1606    1        9.013679703124      19.936461531250      23.902440000000
      1607    1       15.947282546876      22.281927593750      24.878052000000
      1608    1       11.787122171876      19.936461531250      24.878052000000
      1609    1       21.494160828124      22.281927593750      23.902440000000
      1610    1       17.334000453124      19.936461531250      23.902440000000
      1611    1       24.267603296876      22.281927593750      24.878052000000
      1612    1       20.107442921876      19.936461531250      24.878052000000
      1613    1       29.814481578124      22.281927593750      23.902440000000
      1614    1       25.654321203124      19.936461531250      23.902440000000
      1615    1       32.587924046876      22.281927593750      24.878052000000
      1616    1       28.427763671876      19.936461531250      24.878052000000
      1617    1        4.853519328124      26.972859718750      23.902440000000
      1618    1        0.693359951562      24.627393656250      23.902440000000
      1619    1        7.626961796876      26.972859718750      24.878052000000
      1620    1        3.466801421876      24.627393656250      24.878052000000
      1621    1       13.173840078124      26.972859718750      23.902440000000
      1622    1        9.013679703124      24.627393656250      23.902440000000
      1623    1       15.947282546876      26.972859718750      24.878052000000
      1624    1       11.787122171876      24.627393656250      24.878052000000
      1625    1       21.494160828124      26.972859718750      23.902440000000
      1626    1       17.334000453124      24.627393656250      23.902440000000
      1627    1       24.267603296876      26.972859718750      24.878052000000
      1628    1       20.107442921876      24.627393656250      24.878052000000
      1629    1       29.814481578124      26.972859718750      23.902440000000
      1630    1       25.654321203124      24.627393656250      23.902440000000
      1631    1       32.587924046876      26.972859718750      24.878052000000
      1632    1       28.427763671876      24.627393656250      24.878052000000
      1633    1        4.853519328124      31.663791843750      23.902440000000
      1634    1        0.693359951562      29.318325781250      23.902440000000
      1635    1        7.626961796876      31.663791843750      24.878052000000
      1636    1        3.466801421876      29.318325781250      24.878052000000
      1637    1       13.173840078124      31.663791843750      23.902440000000
      1638    1        9.013679703124      29.318325781250      23.902440000000
      1639    1       15.947282546876      31.663791843750      24.878052000000
      1640    1       11.787122171876      29.318325781250      24.878052000000
      1641    1       21.494160828124      31.663791843750      23.902440000000
      1642    1       17.334000453124      29.318325781250      23.902440000000
      1643    1       24.267603296876      31.663791843750      24.878052000000
      1644    1       20.107442921876      29.318325781250      24.878052000000
      1645    1       29.814481578124      31.663791843750      23.902440000000
      1646    1       25.654321203124      29.318325781250      23.902440000000
      1647    1       32.587924046876      31.663791843750      24.878052000000
      1648    1       28.427763671876      29.318325781250      24.878052000000
      1649    1        4.853519328124      36.354723968750      23.902440000000
      1650    1        0.693359951562      34.009257906250      23.902440000000
      1651    1        7.626961796876      36.354723968750      24.878052000000
      1652    1        3.466801421876      34.009257906250      24.878052000000
      1653    1       13.173840078124      36.354723968750      23.902440000000
      1654    1        9.013679703124      34.009257906250      23.902440000000
      1655    1       15.947282546876      36.354723968750      24.878052000000
      1656    1       11.787122171876      34.009257906250      24.878052000000
      1657    1       21.494160828124      36.354723968750      23.902440000000
      1658    1       17.334000453124      34.009257906250      23.902440000000
      1659    1       24.267603296876      36.354723968750      24.878052000000
      1660    1       20.107442921876      34.009257906250      24.878052000000
      1661    1       29.814481578124      36.354723968750      23.902440000000
      1662    1       25.654321203124      34.009257906250      23.902440000000
      1663    1       32.587924046876      36.354723968750      24.878052000000
      1664    1       28.427763671876      34.009257906250      24.878052000000
      1665    2        5.909148374831       1.172733031250      25.853664000000
      1666    2        1.748989663895       3.518199093750      25.853664000000
      1667    2       14.229469124831       1.172733031250      25.853664000000
      1668    2       10.069312077959       3.518199093750      25.853664000000
      1669    2       22.549793202959       1.172733031250      25.853664000000
      1670    2       18.389629499831       3.518199093750      25.853664000000
      1671    2       30.870110624831       1.172733031250      25.853664000000
      1672    2       26.709950249831       3.518199093750      25.853664000000
      1673    2        5.909148374831       5.863665156250      25.853664000000
      1674    2        1.748989663895       8.209131218750      25.853664000000
      1675    2       14.229469124831       5.863665156250      25.853664000000
      1676    2       10.069312077959       8.209131218750      25.853664000000
      1677    2       22.549793202959       5.863665156250      25.853664000000
      1678    2       18.389629499831       8.209131218750      25.853664000000
      1679    2       30.870110624831       5.863665156250      25.853664000000
      1680    2       26.709950249831       8.209131218750      25.853664000000
      1681    2        5.909148374831      10.554597281250      25.853664000000
      1682    2        1.748989663895      12.900063343750      25.853664000000
      1683    2       14.229469124831      10.554597281250      25.853664000000
      1684    2       10.069312077959      12.900063343750      25.853664000000
      1685    2       22.549793202959      10.554597281250      25.853664000000
      1686    2       18.389629499831      12.900063343750      25.853664000000
      1687    2       30.870110624831      10.554597281250      25.853664000000
      1688    2       26.709950249831      12.900063343750      25.853664000000
      1689    2        5.909148374831      15.245529406250      25.853664000000
      1690    2        1.748989663895      17.590995468750      25.853664000000
      1691    2       14.229469124831      15.245529406250      25.853664000000
      1692    2       10.069312077959      17.590995468750      25.853664000000
      1693    2       22.549793202959      15.245529406250      25.853664000000
      1694    2       18.389629499831      17.590995468750      25.853664000000
      1695    2       30.870110624831      15.245529406250      25.853664000000
      1696    2       26.709950249831      17.590995468750      25.853664000000
      1697    2        5.909148374831      19.936461531250      25.853664000000
      1698    2        1.748989663895      22.281927593750      25.853664000000
      1699    2       14.229469124831      19.936461531250      25.853664000000
      1700    2       10.069312077959      22.281927593750      25.853664000000
      1701    2       22.549793202959      19.936461531250      25.853664000000
      1702    2       18.389629499831      22.281927593750      25.853664000000
      1703    2       30.870110624831      19.936461531250      25.853664000000
      1704    2       26.709950249831      22.281927593750      25.853664000000
      1705    2        5.909148374831      24.627393656250      25.853664000000
      1706    2        1.748989663895      26.972859718750      25.853664000000
      1707    2       14.229469124831      24.627393656250      25.853664000000
      1708    2       10.069312077959      26.972859718750      25.853664000000
      1709    2       22.549793202959      24.627393656250      25.853664000000
      1710    2       18.389629499831      26.972859718750      25.853664000000
      1711    2       30.870110624831      24.627393656250      25.853664000000
      1712    2       26.709950249831      26.972859718750      25.853664000000
      1713    2        5.909148374831      29.318325781250      25.853664000000
      1714    2        1.748989663895      31.663791843750      25.853664000000
      1715    2       14.229469124831      29.318325781250      25.853664000000
      1716    2       10.069312077959      31.663791843750      25.853664000000
      1717    2       22.549793202959      29.318325781250      25.853664000000
      1718    2       18.389629499831      31.663791843750      25.853664000000
      1719    2       30.870110624831      29.318325781250      25.853664000000
      1720    2       26.709950249831      31.663791843750      25.853664000000
      1721    2        5.909148374831      34.009257906250      25.853664000000
      1722    2        1.748989663895      36.354723968750      25.853664000000
      1723    2       14.229469124831      34.009257906250      25.853664000000
      1724    2       10.069312077959      36.354723968750      25.853664000000
      1725    2       22.549793202959      34.009257906250      25.853664000000
      1726    2       18.389629499831      36.354723968750      25.853664000000
      1727    2       30.870110624831      34.009257906250      25.853664000000
      1728    2       26.709950249831      36.354723968750      25.853664000000
      1729    2        4.522430468583       3.518199093750      26.829264000000
      1730    2        5.909148374831       1.172733031250      28.780488000000
      1731    2        0.362269760770       1.172733031250      26.829264000000
      1732    2        1.748989663895       3.518199093750      28.780488000000
      1733    1        7.295869609207       3.518199093750      27.804876000000
      1734    1        3.135709899833       1.172733031250      27.804876000000
      1735    2       12.842751218583       3.518199093750      26.829264000000
      1736    2       14.229469124831       1.172733031250      28.780488000000
      1737    2        8.682590843583       1.172733031250      26.829264000000
      1738    2       10.069312077959       3.518199093750      28.780488000000
      1739    1       15.616190359207       3.518199093750      27.804876000000
      1740    1       11.456029984207       1.172733031250      27.804876000000
      1741    2       21.163071968583       3.518199093750      26.829264000000
      1742    2       22.549793202959       1.172733031250      28.780488000000
      1743    2       17.002911593583       1.172733031250      26.829264000000
      1744    2       18.389629499831       3.518199093750      28.780488000000
      1745    1       23.936511109207       3.518199093750      27.804876000000
      1746    1       19.776350734207       1.172733031250      27.804876000000
      1747    2       29.483392718583       3.518199093750      26.829264000000
      1748    2       30.870110624831       1.172733031250      28.780488000000
      1749    2       25.323232343583       1.172733031250      26.829264000000
      1750    2       26.709950249831       3.518199093750      28.780488000000
      1751    1       32.256831859207       3.518199093750      27.804876000000
      1752    1       28.096671484207       1.172733031250      27.804876000000
      1753    2        4.522430468583       8.209131218750      26.829264000000
      1754    2        5.909148374831       5.863665156250      28.780488000000
      1755    2        0.362269760770       5.863665156250      26.829264000000
      1756    2        1.748989663895       8.209131218750      28.780488000000
      1757    1        7.295869609207       8.209131218750      27.804876000000
      1758    1        3.135709899833       5.863665156250      27.804876000000
      1759    2       12.842751218583       8.209131218750      26.829264000000
      1760    2       14.229469124831       5.863665156250      28.780488000000
      1761    2        8.682590843583       5.863665156250      26.829264000000
      1762    2       10.069312077959       8.209131218750      28.780488000000
      1763    1       15.616190359207       8.209131218750      27.804876000000
      1764    1       11.456029984207       5.863665156250      27.804876000000
      1765    2       21.163071968583       8.209131218750      26.829264000000
      1766    2       22.549793202959       5.863665156250      28.780488000000
      1767    2       17.002911593583       5.863665156250      26.829264000000
      1768    2       18.389629499831       8.209131218750      28.780488000000
      1769    1       23.936511109207       8.209131218750      27.804876000000
      1770    1       19.776350734207       5.863665156250      27.804876000000
      1771    2       29.483392718583       8.209131218750      26.829264000000
      1772    2       30.870110624831       5.863665156250      28.780488000000
      1773    2       25.323232343583       5.863665156250      26.829264000000
      1774    2       26.709950249831       8.209131218750      28.780488000000
      1775    1       32.256831859207       8.209131218750      27.804876000000
      1776    1       28.096671484207       5.863665156250      27.804876000000
      1777    2        4.522430468583      12.900063343750      26.829264000000
      1778    2        5.909148374831      10.554597281250      28.780488000000
      1779    2        0.362269760770      10.554597281250      26.829264000000
      1780    2        1.748989663895      12.900063343750      28.780488000000
      1781    1        7.295869609207      12.900063343750      27.804876000000
      1782    1        3.135709899833      10.554597281250      27.804876000000
      1783    2       12.842751218583      12.900063343750      26.829264000000
      1784    2       14.229469124831      10.554597281250      28.780488000000
      1785    2        8.682590843583      10.554597281250      26.829264000000
      1786    2       10.069312077959      12.900063343750      28.780488000000
      1787    1       15.616190359207      12.900063343750      27.804876000000
      1788    1       11.456029984207      10.554597281250      27.804876000000
      1789    2       21.163071968583      12.900063343750      26.829264000000
      1790    2       22.549793202959      10.554597281250      28.780488000000
      1791    2       17.002911593583      10.554597281250      26.829264000000
      1792    2       18.389629499831      12.900063343750      28.780488000000
      1793    1       23.936511109207      12.900063343750      27.804876000000
      1794    1       19.776350734207      10.554597281250      27.804876000000
      1795    2       29.483392718583      12.900063343750      26.829264000000
      1796    2       30.870110624831      10.554597281250      28.780488000000
      1797    2       25.323232343583      10.554597281250      26.829264000000
      1798    2       26.709950249831      12.900063343750      28.780488000000
      1799    1       32.256831859207      12.900063343750      27.804876000000
      1800    1       28.096671484207      10.554597281250      27.804876000000
      1801    2        4.522430468583      17.590995468750      26.829264000000
      1802    2        5.909148374831      15.245529406250      28.780488000000
      1803    2        0.362269760770      15.245529406250      26.829264000000
      1804    2        1.748989663895      17.590995468750      28.780488000000
      1805    1        7.295869609207      17.590995468750      27.804876000000
      1806    1        3.135709899833      15.245529406250      27.804876000000
      1807    2       12.842751218583      17.590995468750      26.829264000000
      1808    2       14.229469124831      15.245529406250      28.780488000000
      1809    2        8.682590843583      15.245529406250      26.829264000000
      1810    2       10.069312077959      17.590995468750      28.780488000000
      1811    1       15.616190359207      17.590995468750      27.804876000000
      1812    1       11.456029984207      15.245529406250      27.804876000000
      1813    2       21.163071968583      17.590995468750      26.829264000000
      1814    2       22.549793202959      15.245529406250      28.780488000000
      1815    2       17.002911593583      15.245529406250      26.829264000000
      1816    2       18.389629499831      17.590995468750      28.780488000000
      1817    1       23.936511109207      17.590995468750      27.804876000000
      1818    1       19.776350734207      15.245529406250      27.804876000000
      1819    2       29.483392718583      17.590995468750      26.829264000000
      1820    2       30.870110624831      15.245529406250      28.780488000000
      1821    2       25.323232343583      15.245529406250      26.829264000000
      1822    2       26.709950249831      17.590995468750      28.780488000000
      1823    1       32.256831859207      17.590995468750      27.804876000000
      1824    1       28.096671484207      15.245529406250      27.804876000000
      1825    2        4.522430468583      22.281927593750      26.829264000000
      1826    2        5.909148374831      19.936461531250      28.780488000000
      1827    2        0.362269760770      19.936461531250      26.829264000000
      1828    2        1.748989663895      22.281927593750      28.780488000000
      1829    1        7.295869609207      22.281927593750      27.804876000000
      1830    1        3.135709899833      19.936461531250      27.804876000000
      1831    2       12.842751218583      22.281927593750      26.829264000000
      1832    2       14.229469124831      19.936461531250      28.780488000000
      1833    2        8.682590843583      19.936461531250      26.829264000000
      1834    2       10.069312077959      22.281927593750      28.780488000000
      1835    1       15.616190359207      22.281927593750      27.804876000000
      1836    1       11.456029984207      19.936461531250      27.804876000000
      1837    2       21.163071968583      22.281927593750      26.829264000000
      1838    2       22.549793202959      19.936461531250      28.780488000000
      1839    2       17.002911593583      19.936461531250      26.829264000000
      1840    2       18.389629499831      22.281927593750      28.780488000000
      1841    1       23.936511109207      22.281927593750      27.804876000000
      1842    1       19.776350734207      19.936461531250      27.804876000000
      1843    2       29.483392718583      22.281927593750      26.829264000000
      1844    2       30.870110624831      19.936461531250      28.780488000000
      1845    2       25.323232343583      19.936461531250      26.829264000000
      1846    2       26.709950249831      22.281927593750      28.780488000000
      1847    1       32.256831859207      22.281927593750      27.804876000000
      1848    1       28.096671484207      19.936461531250      27.804876000000
      1849    2        4.522430468583      26.972859718750      26.829264000000
      1850    2        5.909148374831      24.627393656250      28.780488000000
      1851    2        0.362269760770      24.627393656250      26.829264000000
      1852    2        1.748989663895      26.972859718750      28.780488000000
      1853    1        7.295869609207      26.972859718750      27.804876000000
      1854    1        3.135709899833      24.627393656250      27.804876000000
      1855    2       12.842751218583      26.972859718750      26.829264000000
      1856    2       14.229469124831      24.627393656250      28.780488000000
      1857    2        8.682590843583      24.627393656250      26.829264000000
      1858    2       10.069312077959      26.972859718750      28.780488000000
      1859    1       15.616190359207      26.972859718750      27.804876000000
      1860    1       11.456029984207      24.627393656250      27.804876000000
      1861    2       21.163071968583      26.972859718750      26.829264000000
      1862    2       22.549793202959      24.627393656250      28.780488000000
      1863    2       17.002911593583      24.627393656250      26.829264000000
      1864    2       18.389629499831      26.972859718750      28.780488000000
      1865    1       23.936511109207      26.972859718750      27.804876000000
      1866    1       19.776350734207      24.627393656250      27.804876000000
      1867    2       29.483392718583      26.972859718750      26.829264000000
      1868    2       30.870110624831      24.627393656250      28.780488000000
      1869    2       25.323232343583      24.627393656250      26.829264000000
      1870    2       26.709950249831      26.972859718750      28.780488000000
      1871    1       32.256831859207      26.972859718750      27.804876000000
      1872    1       28.096671484207      24.627393656250      27.804876000000
      1873    2        4.522430468583      31.663791843750      26.829264000000
      1874    2        5.909148374831      29.318325781250      28.780488000000
      1875    2        0.362269760770      29.318325781250      26.829264000000
      1876    2        1.748989663895      31.663791843750      28.780488000000
      1877    1        7.295869609207      31.663791843750      27.804876000000
      1878    1        3.135709899833      29.318325781250      27.804876000000
      1879    2       12.842751218583      31.663791843750      26.829264000000
      1880    2       14.229469124831      29.318325781250      28.780488000000
      1881    2        8.682590843583      29.318325781250      26.829264000000
      1882    2       10.069312077959      31.663791843750      28.780488000000
      1883    1       15.616190359207      31.663791843750      27.804876000000
      1884    1       11.456029984207      29.318325781250      27.804876000000
      1885    2       21.163071968583      31.663791843750      26.829264000000
      1886    2       22.549793202959      29.318325781250      28.780488000000
      1887    2       17.002911593583      29.318325781250      26.829264000000
      1888    2       18.389629499831      31.663791843750      28.780488000000
      1889    1       23.936511109207      31.663791843750      27.804876000000
      1890    1       19.776350734207      29.318325781250      27.804876000000
      1891    2       29.483392718583      31.663791843750      26.829264000000
      1892    2       30.870110624831      29.318325781250      28.780488000000
      1893    2       25.323232343583      29.318325781250      26.829264000000
      1894    2       26.709950249831      31.663791843750      28.780488000000
      1895    1       32.256831859207      31.663791843750      27.804876000000
      1896    1       28.096671484207      29.318325781250      27.804876000000
      1897    2        4.522430468583      36.354723968750      26.829264000000
      1898    2        5.909148374831      34.009257906250      28.780488000000
      1899    2        0.362269760770      34.009257906250      26.829264000000
      1900    2        1.748989663895      36.354723968750      28.780488000000
      1901    1        7.295869609207      36.354723968750      27.804876000000
      1902    1        3.135709899833      34.009257906250      27.804876000000
      1903    2       12.842751218583      36.354723968750      26.829264000000
      1904    2       14.229469124831      34.009257906250      28.780488000000
      1905    2        8.682590843583      34.009257906250      26.829264000000
      1906    2       10.069312077959      36.354723968750      28.780488000000
      1907    1       15.616190359207      36.354723968750      27.804876000000
      1908    1       11.456029984207      34.009257906250      27.804876000000
      1909    2       21.163071968583      36.354723968750      26.829264000000
      1910    2       22.549793202959      34.009257906250      28.780488000000
      1911    2       17.002911593583      34.009257906250      26.829264000000
      1912    2       18.389629499831      36.354723968750      28.780488000000
      1913    1       23.936511109207      36.354723968750      27.804876000000
      1914    1       19.776350734207      34.009257906250      27.804876000000
      1915    2       29.483392718583      36.354723968750      26.829264000000
      1916    2       30.870110624831      34.009257906250      28.780488000000
      1917    2       25.323232343583      34.009257906250      26.829264000000
      1918    2       26.709950249831      36.354723968750      28.780488000000
      1919    1       32.256831859207      36.354723968750      27.804876000000
      1920    1       28.096671484207      34.009257906250      27.804876000000
      1921    2        4.522430468583       3.518199093750      29.756100000000
      1922    2        5.909148374831       1.172733031250      31.707312000000
      1923    2        0.362269760770       1.172733031250      29.756100000000
      1924    2        1.748989663895       3.518199093750      31.707312000000
      1925    1        7.295869609207       3.518199093750      30.731712000000
      1926    1        3.135709899833       1.172733031250      30.731712000000
      1927    2       12.842751218583       3.518199093750      29.756100000000
      1928    2       14.229469124831       1.172733031250      31.707312000000
      1929    2        8.682590843583       1.172733031250      29.756100000000
      1930    2       10.069312077959       3.518199093750      31.707312000000
      1931    1       15.616190359207       3.518199093750      30.731712000000
      1932    1       11.456029984207       1.172733031250      30.731712000000
      1933    2       21.163071968583       3.518199093750      29.756100000000
      1934    2       22.549793202959       1.172733031250      31.707312000000
      1935    2       17.002911593583       1.172733031250      29.756100000000
      1936    2       18.389629499831       3.518199093750      31.707312000000
      1937    1       23.936511109207       3.518199093750      30.731712000000
      1938    1       19.776350734207       1.172733031250      30.731712000000
      1939    2       29.483392718583       3.518199093750      29.756100000000
      1940    2       30.870110624831       1.172733031250      31.707312000000
      1941    2       25.323232343583       1.172733031250      29.756100000000
      1942    2       26.709950249831       3.518199093750      31.707312000000
      1943    1       32.256831859207       3.518199093750      30.731712000000
      1944    1       28.096671484207       1.172733031250      30.731712000000
      1945    2        4.522430468583       8.209131218750      29.756100000000
      1946    2        5.909148374831       5.863665156250      31.707312000000
      1947    2        0.362269760770       5.863665156250      29.756100000000
      1948    2        1.748989663895       8.209131218750      31.707312000000
      1949    1        7.295869609207       8.209131218750      30.731712000000
      1950    1        3.135709899833       5.863665156250      30.731712000000
      1951    2       12.842751218583       8.209131218750      29.756100000000
      1952    2       14.229469124831       5.863665156250      31.707312000000
      1953    2        8.682590843583       5.863665156250      29.756100000000
      1954    2       10.069312077959       8.209131218750      31.707312000000
      1955    1       15.616190359207       8.209131218750      30.731712000000
      1956    1       11.456029984207       5.863665156250      30.731712000000
      1957    2       21.163071968583       8.209131218750      29.756100000000
      1958    2       22.549793202959       5.863665156250      31.707312000000
      1959    2       17.002911593583       5.863665156250      29.756100000000
      1960    2       18.389629499831       8.209131218750      31.707312000000
      1961    1       23.936511109207       8.209131218750      30.731712000000
      1962    1       19.776350734207       5.863665156250      30.731712000000
      1963    2       29.483392718583       8.209131218750      29.756100000000
      1964    2       30.870110624831       5.863665156250      31.707312000000
      1965    2       25.323232343583       5.863665156250      29.756100000000
      1966    2       26.709950249831       8.209131218750      31.707312000000
      1967    1       32.256831859207       8.209131218750      30.731712000000
      1968    1       28.096671484207       5.863665156250      30.731712000000
      1969    2        4.522430468583      12.900063343750      29.756100000000
      1970    2        5.909148374831      10.554597281250      31.707312000000
      1971    2        0.362269760770      10.554597281250      29.756100000000
      1972    2        1.748989663895      12.900063343750      31.707312000000
      1973    1        7.295869609207      12.900063343750      30.731712000000
      1974    1        3.135709899833      10.554597281250      30.731712000000
      1975    2       12.842751218583      12.900063343750      29.756100000000
      1976    2       14.229469124831      10.554597281250      31.707312000000
      1977    2        8.682590843583      10.554597281250      29.756100000000
      1978    2       10.069312077959      12.900063343750      31.707312000000
      1979    1       15.616190359207      12.900063343750      30.731712000000
      1980    1       11.456029984207      10.554597281250      30.731712000000
      1981    2       21.163071968583      12.900063343750      29.756100000000
      1982    2       22.549793202959      10.554597281250      31.707312000000
      1983    2       17.002911593583      10.554597281250      29.756100000000
      1984    2       18.389629499831      12.900063343750      31.707312000000
      1985    1       23.936511109207      12.900063343750      30.731712000000
      1986    1       19.776350734207      10.554597281250      30.731712000000
      1987    2       29.483392718583      12.900063343750      29.756100000000
      1988    2       30.870110624831      10.554597281250      31.707312000000
      1989    2       25.323232343583      10.554597281250      29.756100000000
      1990    2       26.709950249831      12.900063343750      31.707312000000
      1991    1       32.256831859207      12.900063343750      30.731712000000
      1992    1       28.096671484207      10.554597281250      30.731712000000
      1993    2        4.522430468583      17.590995468750      29.756100000000
      1994    2        5.909148374831      15.245529406250      31.707312000000
      1995    2        0.362269760770      15.245529406250      29.756100000000
      1996    2        1.748989663895      17.590995468750      31.707312000000
      1997    1        7.295869609207      17.590995468750      30.731712000000
      1998    1        3.135709899833      15.245529406250      30.731712000000
      1999    2       12.842751218583      17.590995468750      29.756100000000
      2000    2       14.229469124831      15.245529406250      31.707312000000
      2001    2        8.682590843583      15.245529406250      29.756100000000
      2002    2       10.069312077959      17.590995468750      31.707312000000
      2003    1       15.616190359207      17.590995468750      30.731712000000
      2004    1       11.456029984207      15.245529406250      30.731712000000
      2005    2       21.163071968583      17.590995468750      29.756100000000
      2006    2       22.549793202959      15.245529406250      31.707312000000
      2007    2       17.002911593583      15.245529406250      29.756100000000
      2008    2       18.389629499831      17.590995468750      31.707312000000
      2009    1       23.936511109207      17.590995468750      30.731712000000
      2010    1       19.776350734207      15.245529406250      30.731712000000
      2011    2       29.483392718583      17.590995468750      29.756100000000
      2012    2       30.870110624831      15.245529406250      31.707312000000
      2013    2       25.323232343583      15.245529406250      29.756100000000
      2014    2       26.709950249831      17.590995468750      31.707312000000
      2015    1       32.256831859207      17.590995468750      30.731712000000
      2016    1       28.096671484207      15.245529406250      30.731712000000
      2017    2        4.522430468583      22.281927593750      29.756100000000
      2018    2        5.909148374831      19.936461531250      31.707312000000
      2019    2        0.362269760770      19.936461531250      29.756100000000
      2020    2        1.748989663895      22.281927593750      31.707312000000
      2021    1        7.295869609207      22.281927593750      30.731712000000
      2022    1        3.135709899833      19.936461531250      30.731712000000
      2023    2       12.842751218583      22.281927593750      29.756100000000
      2024    2       14.229469124831      19.936461531250      31.707312000000
      2025    2        8.682590843583      19.936461531250      29.756100000000
      2026    2       10.069312077959      22.281927593750      31.707312000000
      2027    1       15.616190359207      22.281927593750      30.731712000000
      2028    1       11.456029984207      19.936461531250      30.731712000000
      2029    2       21.163071968583      22.281927593750      29.756100000000
      2030    2       22.549793202959      19.936461531250      31.707312000000
      2031    2       17.002911593583      19.936461531250      29.756100000000
      2032    2       18.389629499831      22.281927593750      31.707312000000
      2033    1       23.936511109207      22.281927593750      30.731712000000
      2034    1       19.776350734207      19.936461531250      30.731712000000
      2035    2       29.483392718583      22.281927593750      29.756100000000
      2036    2       30.870110624831      19.936461531250      31.707312000000
      2037    2       25.323232343583      19.936461531250      29.756100000000
      2038    2       26.709950249831      22.281927593750      31.707312000000
      2039    1       32.256831859207      22.281927593750      30.731712000000
      2040    1       28.096671484207      19.936461531250      30.731712000000
      2041    2        4.522430468583      26.972859718750      29.756100000000
      2042    2        5.909148374831      24.627393656250      31.707312000000
      2043    2        0.362269760770      24.627393656250      29.756100000000
      2044    2        1.748989663895      26.972859718750      31.707312000000
      2045    1        7.295869609207      26.972859718750      30.731712000000
      2046    1        3.135709899833      24.627393656250      30.731712000000
      2047    2       12.842751218583      26.972859718750      29.756100000000
      2048    2       14.229469124831      24.627393656250      31.707312000000
      2049    2        8.682590843583      24.627393656250      29.756100000000
      2050    2       10.069312077959      26.972859718750      31.707312000000
      2051    1       15.616190359207      26.972859718750      30.731712000000
      2052    1       11.456029984207      24.627393656250      30.731712000000
      2053    2       21.163071968583      26.972859718750      29.756100000000
      2054    2       22.549793202959      24.627393656250      31.707312000000
      2055    2       17.002911593583      24.627393656250      29.756100000000
      2056    2       18.389629499831      26.972859718750      31.707312000000
      2057    1       23.936511109207      26.972859718750      30.731712000000
      2058    1       19.776350734207      24.627393656250      30.731712000000
      2059    2       29.483392718583      26.972859718750      29.756100000000
      2060    2       30.870110624831      24.627393656250      31.707312000000
      2061    2       25.323232343583      24.627393656250      29.756100000000
      2062    2       26.709950249831      26.972859718750      31.707312000000
      2063    1       32.256831859207      26.972859718750      30.731712000000
      2064    1       28.096671484207      24.627393656250      30.731712000000
      2065    2        4.522430468583      31.663791843750      29.756100000000
      2066    2        5.909148374831      29.318325781250      31.707312000000
      2067    2        0.362269760770      29.318325781250      29.756100000000
      2068    2        1.748989663895      31.663791843750      31.707312000000
      2069    1        7.295869609207      31.663791843750      30.731712000000
      2070    1        3.135709899833      29.318325781250      30.731712000000
      2071    2       12.842751218583      31.663791843750      29.756100000000
      2072    2       14.229469124831      29.318325781250      31.707312000000
      2073    2        8.682590843583      29.318325781250      29.756100000000
      2074    2       10.069312077959      31.663791843750      31.707312000000
      2075    1       15.616190359207      31.663791843750      30.731712000000
      2076    1       11.456029984207      29.318325781250      30.731712000000
      2077    2       21.163071968583      31.663791843750      29.756100000000
      2078    2       22.549793202959      29.318325781250      31.707312000000
      2079    2       17.002911593583      29.318325781250      29.756100000000
      2080    2       18.389629499831      31.663791843750      31.707312000000
      2081    1       23.936511109207      31.663791843750      30.731712000000
      2082    1       19.776350734207      29.318325781250      30.731712000000
      2083    2       29.483392718583      31.663791843750      29.756100000000
      2084    2       30.870110624831      29.318325781250      31.707312000000
      2085    2       25.323232343583      29.318325781250      29.756100000000
      2086    2       26.709950249831      31.663791843750      31.707312000000
      2087    1       32.256831859207      31.663791843750      30.731712000000
      2088    1       28.096671484207      29.318325781250      30.731712000000
      2089    2        4.522430468583      36.354723968750      29.756100000000
      2090    2        5.909148374831      34.009257906250      31.707312000000
      2091    2        0.362269760770      34.009257906250      29.756100000000
      2092    2        1.748989663895      36.354723968750      31.707312000000
      2093    1        7.295869609207      36.354723968750      30.731712000000
      2094    1        3.135709899833      34.009257906250      30.731712000000
      2095    2       12.842751218583      36.354723968750      29.756100000000
      2096    2       14.229469124831      34.009257906250      31.707312000000
      2097    2        8.682590843583      34.009257906250      29.756100000000
      2098    2       10.069312077959      36.354723968750      31.707312000000
      2099    1       15.616190359207      36.354723968750      30.731712000000
      2100    1       11.456029984207      34.009257906250      30.731712000000
      2101    2       21.163071968583      36.354723968750      29.756100000000
      2102    2       22.549793202959      34.009257906250      31.707312000000
      2103    2       17.002911593583      34.009257906250      29.756100000000
      2104    2       18.389629499831      36.354723968750      31.707312000000
      2105    1       23.936511109207      36.354723968750      30.731712000000
      2106    1       19.776350734207      34.009257906250      30.731712000000
      2107    2       29.483392718583      36.354723968750      29.756100000000
      2108    2       30.870110624831      34.009257906250      31.707312000000
      2109    2       25.323232343583      34.009257906250      29.756100000000
      2110    2       26.709950249831      36.354723968750      31.707312000000
      2111    1       32.256831859207      36.354723968750      30.731712000000
      2112    1       28.096671484207      34.009257906250      30.731712000000
      2113    2        4.522430468583       3.518199093750      32.682924000000
      2114    2        5.909148374831       1.172733031250      34.634148000000
      2115    2        0.362269760770       1.172733031250      32.682924000000
      2116    2        1.748989663895       3.518199093750      34.634148000000
      2117    1        7.295869609207       3.518199093750      33.658536000000
      2118    1        3.135709899833       1.172733031250      33.658536000000
      2119    2       12.842751218583       3.518199093750      32.682924000000
      2120    2       14.229469124831       1.172733031250      34.634148000000
      2121    2        8.682590843583       1.172733031250      32.682924000000
      2122    2       10.069312077959       3.518199093750      34.634148000000
      2123    1       15.616190359207       3.518199093750      33.658536000000
      2124    1       11.456029984207       1.172733031250      33.658536000000
      2125    2       21.163071968583       3.518199093750      32.682924000000
      2126    2       22.549793202959       1.172733031250      34.634148000000
      2127    2       17.002911593583       1.172733031250      32.682924000000
      2128    2       18.389629499831       3.518199093750      34.634148000000
      2129    1       23.936511109207       3.518199093750      33.658536000000
      2130    1       19.776350734207       1.172733031250      33.658536000000
      2131    2       29.483392718583       3.518199093750      32.682924000000
      2132    2       30.870110624831       1.172733031250      34.634148000000
      2133    2       25.323232343583       1.172733031250      32.682924000000
      2134    2       26.709950249831       3.518199093750      34.634148000000
      2135    1       32.256831859207       3.518199093750      33.658536000000
      2136    1       28.096671484207       1.172733031250      33.658536000000
      2137    2        4.522430468583       8.209131218750      32.682924000000
      2138    2        5.909148374831       5.863665156250      34.634148000000
      2139    2        0.362269760770       5.863665156250      32.682924000000
      2140    2        1.748989663895       8.209131218750      34.634148000000
      2141    1        7.295869609207       8.209131218750      33.658536000000
      2142    1        3.135709899833       5.863665156250      33.658536000000
      2143    2       12.842751218583       8.209131218750      32.682924000000
      2144    2       14.229469124831       5.863665156250      34.634148000000
      2145    2        8.682590843583       5.863665156250      32.682924000000
      2146    2       10.069312077959       8.209131218750      34.634148000000
      2147    1       15.616190359207       8.209131218750      33.658536000000
      2148    1       11.456029984207       5.863665156250      33.658536000000
      2149    2       21.163071968583       8.209131218750      32.682924000000
      2150    2       22.549793202959       5.863665156250      34.634148000000
      2151    2       17.002911593583       5.863665156250      32.682924000000
      2152    2       18.389629499831       8.209131218750      34.634148000000
      2153    1       23.936511109207       8.209131218750      33.658536000000
      2154    1       19.776350734207       5.863665156250      33.658536000000
      2155    2       29.483392718583       8.209131218750      32.682924000000
      2156    2       30.870110624831       5.863665156250      34.634148000000
      2157    2       25.323232343583       5.863665156250      32.682924000000
      2158    2       26.709950249831       8.209131218750      34.634148000000
      2159    1       32.256831859207       8.209131218750      33.658536000000
      2160    1       28.096671484207       5.863665156250      33.658536000000
      2161    2        4.522430468583      12.900063343750      32.682924000000
      2162    2        5.909148374831      10.554597281250      34.634148000000
      2163    2        0.362269760770      10.554597281250      32.682924000000
      2164    2        1.748989663895      12.900063343750      34.634148000000
      2165    1        7.295869609207      12.900063343750      33.658536000000
      2166    1        3.135709899833      10.554597281250      33.658536000000
      2167    2       12.842751218583      12.900063343750      32.682924000000
      2168    2       14.229469124831      10.554597281250      34.634148000000
      2169    2        8.682590843583      10.554597281250      32.682924000000
      2170    2       10.069312077959      12.900063343750      34.634148000000
      2171    1       15.616190359207      12.900063343750      33.658536000000
      2172    1       11.456029984207      10.554597281250      33.658536000000
      2173    2       21.163071968583      12.900063343750      32.682924000000
      2174    2       22.549793202959      10.554597281250      34.634148000000
      2175    2       17.002911593583      10.554597281250      32.682924000000
      2176    2       18.389629499831      12.900063343750      34.634148000000
      2177    1       23.936511109207      12.900063343750      33.658536000000
      2178    1       19.776350734207      10.554597281250      33.658536000000
      2179    2       29.483392718583      12.900063343750      32.682924000000
      2180    2       30.870110624831      10.554597281250      34.634148000000
      2181    2       25.323232343583      10.554597281250      32.682924000000
      2182    2       26.709950249831      12.900063343750      34.634148000000
      2183    1       32.256831859207      12.900063343750      33.658536000000
      2184    1       28.096671484207      10.554597281250      33.658536000000
      2185    2        4.522430468583      17.590995468750      32.682924000000
      2186    2        5.909148374831      15.245529406250      34.634148000000
      2187    2        0.362269760770      15.245529406250      32.682924000000
      2188    2        1.748989663895      17.590995468750      34.634148000000
      2189    1        7.295869609207      17.590995468750      33.658536000000
      2190    1        3.135709899833      15.245529406250      33.658536000000
      2191    2       12.842751218583      17.590995468750      32.682924000000
      2192    2       14.229469124831      15.245529406250      34.634148000000
      2193    2        8.682590843583      15.245529406250      32.682924000000
      2194    2       10.069312077959      17.590995468750      34.634148000000
      2195    1       15.616190359207      17.590995468750      33.658536000000
      2196    1       11.456029984207      15.245529406250      33.658536000000
      2197    2       21.163071968583      17.590995468750      32.682924000000
      2198    2       22.549793202959      15.245529406250      34.634148000000
      2199    2       17.002911593583      15.245529406250      32.682924000000
      2200    2       18.389629499831      17.590995468750      34.634148000000
      2201    1       23.936511109207      17.590995468750      33.658536000000
      2202    1       19.776350734207      15.245529406250      33.658536000000
      2203    2       29.483392718583      17.590995468750      32.682924000000
      2204    2       30.870110624831      15.245529406250      34.634148000000
      2205    2       25.323232343583      15.245529406250      32.682924000000
      2206    2       26.709950249831      17.590995468750      34.634148000000
      2207    1       32.256831859207      17.590995468750      33.658536000000
      2208    1       28.096671484207      15.245529406250      33.658536000000
      2209    2        4.522430468583      22.281927593750      32.682924000000
      2210    2        5.909148374831      19.936461531250      34.634148000000
      2211    2        0.362269760770      19.936461531250      32.682924000000
      2212    2        1.748989663895      22.281927593750      34.634148000000
      2213    1        7.295869609207      22.281927593750      33.658536000000
      2214    1        3.135709899833      19.936461531250      33.658536000000
      2215    2       12.842751218583      22.281927593750      32.682924000000
      2216    2       14.229469124831      19.936461531250      34.634148000000
      2217    2        8.682590843583      19.936461531250      32.682924000000
      2218    2       10.069312077959      22.281927593750      34.634148000000
      2219    1       15.616190359207      22.281927593750      33.658536000000
      2220    1       11.456029984207      19.936461531250      33.658536000000
      2221    2       21.163071968583      22.281927593750      32.682924000000
      2222    2       22.549793202959      19.936461531250      34.634148000000
      2223    2       17.002911593583      19.936461531250      32.682924000000
      2224    2       18.389629499831      22.281927593750      34.634148000000
      2225    1       23.936511109207      22.281927593750      33.658536000000
      2226    1       19.776350734207      19.936461531250      33.658536000000
      2227    2       29.483392718583      22.281927593750      32.682924000000
      2228    2       30.870110624831      19.936461531250      34.634148000000
      2229    2       25.323232343583      19.936461531250      32.682924000000
      2230    2       26.709950249831      22.281927593750      34.634148000000
      2231    1       32.256831859207      22.281927593750      33.658536000000
      2232    1       28.096671484207      19.936461531250      33.658536000000
      2233    2        4.522430468583      26.972859718750      32.682924000000
      2234    2        5.909148374831      24.627393656250      34.634148000000
      2235    2        0.362269760770      24.627393656250      32.682924000000
      2236    2        1.748989663895      26.972859718750      34.634148000000
      2237    1        7.295869609207      26.972859718750      33.658536000000
      2238    1        3.135709899833      24.627393656250      33.658536000000
      2239    2       12.842751218583      26.972859718750      32.682924000000
      2240    2       14.229469124831      24.627393656250      34.634148000000
      2241    2        8.682590843583      24.627393656250      32.682924000000
      2242    2       10.069312077959      26.972859718750      34.634148000000
      2243    1       15.616190359207      26.972859718750      33.658536000000
      2244    1       11.456029984207      24.627393656250      33.658536000000
      2245    2       21.163071968583      26.972859718750      32.682924000000
      2246    2       22.549793202959      24.627393656250      34.634148000000
      2247    2       17.002911593583      24.627393656250      32.682924000000
      2248    2       18.389629499831      26.972859718750      34.634148000000
      2249    1       23.936511109207      26.972859718750      33.658536000000
      2250    1       19.776350734207      24.627393656250      33.658536000000
      2251    2       29.483392718583      26.972859718750      32.682924000000
      2252    2       30.870110624831      24.627393656250      34.634148000000
      2253    2       25.323232343583      24.627393656250      32.682924000000
      2254    2       26.709950249831      26.972859718750      34.634148000000
      2255    1       32.256831859207      26.972859718750      33.658536000000
      2256    1       28.096671484207      24.627393656250      33.658536000000
      2257    2        4.522430468583      31.663791843750      32.682924000000
      2258    2        5.909148374831      29.318325781250      34.634148000000
      2259    2        0.362269760770      29.318325781250      32.682924000000
      2260    2        1.748989663895      31.663791843750      34.634148000000
      2261    1        7.295869609207      31.663791843750      33.658536000000
      2262    1        3.135709899833      29.318325781250      33.658536000000
      2263    2       12.842751218583      31.663791843750      32.682924000000
      2264    2       14.229469124831      29.318325781250      34.634148000000
      2265    2        8.682590843583      29.318325781250      32.682924000000
      2266    2       10.069312077959      31.663791843750      34.634148000000
      2267    1       15.616190359207      31.663791843750      33.658536000000
      2268    1       11.456029984207      29.318325781250      33.658536000000
      2269    2       21.163071968583      31.663791843750      32.682924000000
      2270    2       22.549793202959      29.318325781250      34.634148000000
      2271    2       17.002911593583      29.318325781250      32.682924000000
      2272    2       18.389629499831      31.663791843750      34.634148000000
      2273    1       23.936511109207      31.663791843750      33.658536000000
      2274    1       19.776350734207      29.318325781250      33.658536000000
      2275    2       29.483392718583      31.663791843750      32.682924000000
      2276    2       30.870110624831      29.318325781250      34.634148000000
      2277    2       25.323232343583      29.318325781250      32.682924000000
      2278    2       26.709950249831      31.663791843750      34.634148000000
      2279    1       32.256831859207      31.663791843750      33.658536000000
      2280    1       28.096671484207      29.318325781250      33.658536000000
      2281    2        4.522430468583      36.354723968750      32.682924000000
      2282    2        5.909148374831      34.009257906250      34.634148000000
      2283    2        0.362269760770      34.009257906250      32.682924000000
      2284    2        1.748989663895      36.354723968750      34.634148000000
      2285    1        7.295869609207      36.354723968750      33.658536000000
      2286    1        3.135709899833      34.009257906250      33.658536000000
      2287    2       12.842751218583      36.354723968750      32.682924000000
      2288    2       14.229469124831      34.009257906250      34.634148000000
      2289    2        8.682590843583      34.009257906250      32.682924000000
      2290    2       10.069312077959      36.354723968750      34.634148000000
      2291    1       15.616190359207      36.354723968750      33.658536000000
      2292    1       11.456029984207      34.009257906250      33.658536000000
      2293    2       21.163071968583      36.354723968750      32.682924000000
      2294    2       22.549793202959      34.009257906250      34.634148000000
      2295    2       17.002911593583      34.009257906250      32.682924000000
      2296    2       18.389629499831      36.354723968750      34.634148000000
      2297    1       23.936511109207      36.354723968750      33.658536000000
      2298    1       19.776350734207      34.009257906250      33.658536000000
      2299    2       29.483392718583      36.354723968750      32.682924000000
      2300    2       30.870110624831      34.009257906250      34.634148000000
      2301    2       25.323232343583      34.009257906250      32.682924000000
      2302    2       26.709950249831      36.354723968750      34.634148000000
      2303    1       32.256831859207      36.354723968750      33.658536000000
      2304    1       28.096671484207      34.009257906250      33.658536000000
      2305    2        0.396205686607       1.172733031250      35.853660000000
      2306    2        2.773440139062       1.172733031250      37.317072000000
      2307    2        1.981028765848       3.518199093750      35.853660000000
      2308    2        4.358263883929       3.518199093750      37.317072000000
      2309    2        5.150674591518       1.172733031250      35.853660000000
      2310    2        7.527910042412       1.172733031250      37.317072000000
      2311    2        6.735499334823       3.518199093750      35.853660000000
      2312    2        9.112731457589       3.518199093750      37.317072000000
      2313    2        9.905142165177       1.172733031250      35.853660000000
      2314    2       12.282377616071       1.172733031250      37.317072000000
      2315    2       11.489966908482       3.518199093750      35.853660000000
      2316    2       13.867202359376       3.518199093750      37.317072000000
      2317    2       14.659613066965       1.172733031250      35.853660000000
      2318    2       17.036848517858       1.172733031250      37.317072000000
      2319    2       16.244434482142       3.518199093750      35.853660000000
      2320    2       18.621669933035       3.518199093750      37.317072000000
      2321    2       19.414080640624       1.172733031250      35.853660000000
      2322    2       21.791316091518       1.172733031250      37.317072000000
      2323    2       20.998905383929       3.518199093750      35.853660000000
      2324    2       23.376140834823       3.518199093750      37.317072000000
      2325    2       24.168551542411       1.172733031250      35.853660000000
      2326    2       26.545783665177       1.172733031250      37.317072000000
      2327    2       25.753372957589       3.518199093750      35.853660000000
      2328    2       28.130608408482       3.518199093750      37.317072000000
      2329    2       28.923019116071       1.172733031250      35.853660000000
      2330    2       31.300254566965       1.172733031250      37.317072000000
      2331    2       30.507843859376       3.518199093750      35.853660000000
      2332    2       32.885075982142       3.518199093750      37.317072000000
      2333    2        0.396205686607       5.863665156250      35.853660000000
      2334    2        2.773440139062       5.863665156250      37.317072000000
      2335    2        1.981028765848       8.209131218750      35.853660000000
      2336    2        4.358263883929       8.209131218750      37.317072000000
      2337    2        5.150674591518       5.863665156250      35.853660000000
      2338    2        7.527910042412       5.863665156250      37.317072000000
      2339    2        6.735499334823       8.209131218750      35.853660000000
      2340    2        9.112731457589       8.209131218750      37.317072000000
      2341    2        9.905142165177       5.863665156250      35.853660000000
      2342    2       12.282377616071       5.863665156250      37.317072000000
      2343    2       11.489966908482       8.209131218750      35.853660000000
      2344    2       13.867202359376       8.209131218750      37.317072000000
      2345    2       14.659613066965       5.863665156250      35.853660000000
      2346    2       17.036848517858       5.863665156250      37.317072000000
      2347    2       16.244434482142       8.209131218750      35.853660000000
      2348    2       18.621669933035       8.209131218750      37.317072000000
      2349    2       19.414080640624       5.863665156250      35.853660000000
      2350    2       21.791316091518       5.863665156250      37.317072000000
      2351    2       20.998905383929       8.209131218750      35.853660000000
      2352    2       23.376140834823       8.209131218750      37.317072000000
      2353    2       24.168551542411       5.863665156250      35.853660000000
      2354    2       26.545783665177       5.863665156250      37.317072000000
      2355    2       25.753372957589       8.209131218750      35.853660000000
      2356    2       28.130608408482       8.209131218750      37.317072000000
      2357    2       28.923019116071       5.863665156250      35.853660000000
      2358    2       31.300254566965       5.863665156250      37.317072000000
      2359    2       30.507843859376       8.209131218750      35.853660000000
      2360    2       32.885075982142       8.209131218750      37.317072000000
      2361    2        0.396205686607      10.554597281250      35.853660000000
      2362    2        2.773440139062      10.554597281250      37.317072000000
      2363    2        1.981028765848      12.900063343750      35.853660000000
      2364    2        4.358263883929      12.900063343750      37.317072000000
      2365    2        5.150674591518      10.554597281250      35.853660000000
      2366    2        7.527910042412      10.554597281250      37.317072000000
      2367    2        6.735499334823      12.900063343750      35.853660000000
      2368    2        9.112731457589      12.900063343750      37.317072000000
      2369    2        9.905142165177      10.554597281250      35.853660000000
      2370    2       12.282377616071      10.554597281250      37.317072000000
      2371    2       11.489966908482      12.900063343750      35.853660000000
      2372    2       13.867202359376      12.900063343750      37.317072000000
      2373    2       14.659613066965      10.554597281250      35.853660000000
      2374    2       17.036848517858      10.554597281250      37.317072000000
      2375    2       16.244434482142      12.900063343750      35.853660000000
      2376    2       18.621669933035      12.900063343750      37.317072000000
      2377    2       19.414080640624      10.554597281250      35.853660000000
      2378    2       21.791316091518      10.554597281250      37.317072000000
      2379    2       20.998905383929      12.900063343750      35.853660000000
      2380    2       23.376140834823      12.900063343750      37.317072000000
      2381    2       24.168551542411      10.554597281250      35.853660000000
      2382    2       26.545783665177      10.554597281250      37.317072000000
      2383    2       25.753372957589      12.900063343750      35.853660000000
      2384    2       28.130608408482      12.900063343750      37.317072000000
      2385    2       28.923019116071      10.554597281250      35.853660000000
      2386    2       31.300254566965      10.554597281250      37.317072000000
      2387    2       30.507843859376      12.900063343750      35.853660000000
      2388    2       32.885075982142      12.900063343750      37.317072000000
      2389    2        0.396205686607      15.245529406250      35.853660000000
      2390    2        2.773440139062      15.245529406250      37.317072000000
      2391    2        1.981028765848      17.590995468750      35.853660000000
      2392    2        4.358263883929      17.590995468750      37.317072000000
      2393    2        5.150674591518      15.245529406250      35.853660000000
      2394    2        7.527910042412      15.245529406250      37.317072000000
      2395    2        6.735499334823      17.590995468750      35.853660000000
      2396    2        9.112731457589      17.590995468750      37.317072000000
      2397    2        9.905142165177      15.245529406250      35.853660000000
      2398    2       12.282377616071      15.245529406250      37.317072000000
      2399    2       11.489966908482      17.590995468750      35.853660000000
      2400    2       13.867202359376      17.590995468750      37.317072000000
      2401    2       14.659613066965      15.245529406250      35.853660000000
      2402    2       17.036848517858      15.245529406250      37.317072000000
      2403    2       16.244434482142      17.590995468750      35.853660000000
      2404    2       18.621669933035      17.590995468750      37.317072000000
      2405    2       19.414080640624      15.245529406250      35.853660000000
      2406    2       21.791316091518      15.245529406250      37.317072000000
      2407    2       20.998905383929      17.590995468750      35.853660000000
      2408    2       23.376140834823      17.590995468750      37.317072000000
      2409    2       24.168551542411      15.245529406250      35.853660000000
      2410    2       26.545783665177      15.245529406250      37.317072000000
      2411    2       25.753372957589      17.590995468750      35.853660000000
      2412    2       28.130608408482      17.590995468750      37.317072000000
      2413    2       28.923019116071      15.245529406250      35.853660000000
      2414    2       31.300254566965      15.245529406250      37.317072000000
      2415    2       30.507843859376      17.590995468750      35.853660000000
      2416    2       32.885075982142      17.590995468750      37.317072000000
      2417    2        0.396205686607      19.936461531250      35.853660000000
      2418    2        2.773440139062      19.936461531250      37.317072000000
      2419    2        1.981028765848      22.281927593750      35.853660000000
      2420    2        4.358263883929      22.281927593750      37.317072000000
      2421    2        5.150674591518      19.936461531250      35.853660000000
      2422    2        7.527910042412      19.936461531250      37.317072000000
      2423    2        6.735499334823      22.281927593750      35.853660000000
      2424    2        9.112731457589      22.281927593750      37.317072000000
      2425    2        9.905142165177      19.936461531250      35.853660000000
      2426    2       12.282377616071      19.936461531250      37.317072000000
      2427    2       11.489966908482      22.281927593750      35.853660000000
      2428    2       13.867202359376      22.281927593750      37.317072000000
      2429    2       14.659613066965      19.936461531250      35.853660000000
      2430    2       17.036848517858      19.936461531250      37.317072000000
      2431    2       16.244434482142      22.281927593750      35.853660000000
      2432    2       18.621669933035      22.281927593750      37.317072000000
      2433    2       19.414080640624      19.936461531250      35.853660000000
      2434    2       21.791316091518      19.936461531250      37.317072000000
      2435    2       20.998905383929      22.281927593750      35.853660000000
      2436    2       23.376140834823      22.281927593750      37.317072000000
      2437    2       24.168551542411      19.936461531250      35.853660000000
      2438    2       26.545783665177      19.936461531250      37.317072000000
      2439    2       25.753372957589      22.281927593750      35.853660000000
      2440    2       28.130608408482      22.281927593750      37.317072000000
      2441    2       28.923019116071      19.936461531250      35.853660000000
      2442    2       31.300254566965      19.936461531250      37.317072000000
      2443    2       30.507843859376      22.281927593750      35.853660000000
      2444    2       32.885075982142      22.281927593750      37.317072000000
      2445    2        0.396205686607      24.627393656250      35.853660000000
      2446    2        2.773440139062      24.627393656250      37.317072000000
      2447    2        1.981028765848      26.972859718750      35.853660000000
      2448    2        4.358263883929      26.972859718750      37.317072000000
      2449    2        5.150674591518      24.627393656250      35.853660000000
      2450    2        7.527910042412      24.627393656250      37.317072000000
      2451    2        6.735499334823      26.972859718750      35.853660000000
      2452    2        9.112731457589      26.972859718750      37.317072000000
      2453    2        9.905142165177      24.627393656250      35.853660000000
      2454    2       12.282377616071      24.627393656250      37.317072000000
      2455    2       11.489966908482      26.972859718750      35.853660000000
      2456    2       13.867202359376      26.972859718750      37.317072000000
      2457    2       14.659613066965      24.627393656250      35.853660000000
      2458    2       17.036848517858      24.627393656250      37.317072000000
      2459    2       16.244434482142      26.972859718750      35.853660000000
      2460    2       18.621669933035      26.972859718750      37.317072000000
      2461    2       19.414080640624      24.627393656250      35.853660000000
      2462    2       21.791316091518      24.627393656250      37.317072000000
      2463    2       20.998905383929      26.972859718750      35.853660000000
      2464    2       23.376140834823      26.972859718750      37.317072000000
      2465    2       24.168551542411      24.627393656250      35.853660000000
      2466    2       26.545783665177      24.627393656250      37.317072000000
      2467    2       25.753372957589      26.972859718750      35.853660000000
      2468    2       28.130608408482      26.972859718750      37.317072000000
      2469    2       28.923019116071      24.627393656250      35.853660000000
      2470    2       31.300254566965      24.627393656250      37.317072000000
      2471    2       30.507843859376      26.972859718750      35.853660000000
      2472    2       32.885075982142      26.972859718750      37.317072000000
      2473    2        0.396205686607      29.318325781250      35.853660000000
      2474    2        2.773440139062      29.318325781250      37.317072000000
      2475    2        1.981028765848      31.663791843750      35.853660000000
      2476    2        4.358263883929      31.663791843750      37.317072000000
      2477    2        5.150674591518      29.318325781250      35.853660000000
      2478    2        7.527910042412      29.318325781250      37.317072000000
      2479    2        6.735499334823      31.663791843750      35.853660000000
      2480    2        9.112731457589      31.663791843750      37.317072000000
      2481    2        9.905142165177      29.318325781250      35.853660000000
      2482    2       12.282377616071      29.318325781250      37.317072000000
      2483    2       11.489966908482      31.663791843750      35.853660000000
      2484    2       13.867202359376      31.663791843750      37.317072000000
      2485    2       14.659613066965      29.318325781250      35.853660000000
      2486    2       17.036848517858      29.318325781250      37.317072000000
      2487    2       16.244434482142      31.663791843750      35.853660000000
      2488    2       18.621669933035      31.663791843750      37.317072000000
      2489    2       19.414080640624      29.318325781250      35.853660000000
      2490    2       21.791316091518      29.318325781250      37.317072000000
      2491    2       20.998905383929      31.663791843750      35.853660000000
      2492    2       23.376140834823      31.663791843750      37.317072000000
      2493    2       24.168551542411      29.318325781250      35.853660000000
      2494    2       26.545783665177      29.318325781250      37.317072000000
      2495    2       25.753372957589      31.663791843750      35.853660000000
      2496    2       28.130608408482      31.663791843750      37.317072000000
      2497    2       28.923019116071      29.318325781250      35.853660000000
      2498    2       31.300254566965      29.318325781250      37.317072000000
      2499    2       30.507843859376      31.663791843750      35.853660000000
      2500    2       32.885075982142      31.663791843750      37.317072000000
      2501    2        0.396205686607      34.009257906250      35.853660000000
      2502    2        2.773440139062      34.009257906250      37.317072000000
      2503    2        1.981028765848      36.354723968750      35.853660000000
      2504    2        4.358263883929      36.354723968750      37.317072000000
      2505    2        5.150674591518      34.009257906250      35.853660000000
      2506    2        7.527910042412      34.009257906250      37.317072000000
      2507    2        6.735499334823      36.354723968750      35.853660000000
      2508    2        9.112731457589      36.354723968750      37.317072000000
      2509    2        9.905142165177      34.009257906250      35.853660000000
      2510    2       12.282377616071      34.009257906250      37.317072000000
      2511    2       11.489966908482      36.354723968750      35.853660000000
      2512    2       13.867202359376      36.354723968750      37.317072000000
      2513    2       14.659613066965      34.009257906250      35.853660000000
      2514    2       17.036848517858      34.009257906250      37.317072000000
      2515    2       16.244434482142      36.354723968750      35.853660000000
      2516    2       18.621669933035      36.354723968750      37.317072000000
      2517    2       19.414080640624      34.009257906250      35.853660000000
      2518    2       21.791316091518      34.009257906250      37.317072000000
      2519    2       20.998905383929      36.354723968750      35.853660000000
      2520    2       23.376140834823      36.354723968750      37.317072000000
      2521    2       24.168551542411      34.009257906250      35.853660000000
      2522    2       26.545783665177      34.009257906250      37.317072000000
      2523    2       25.753372957589      36.354723968750      35.853660000000
      2524    2       28.130608408482      36.354723968750      37.317072000000
      2525    2       28.923019116071      34.009257906250      35.853660000000
      2526    2       31.300254566965      34.009257906250      37.317072000000
      2527    2       30.507843859376      36.354723968750      35.853660000000
      2528    2       32.885075982142      36.354723968750      37.317072000000
      2529    2        0.396205686607       1.172733031250      38.780484000000
      2530    2        2.773440139062       1.172733031250      40.243896000000
      2531    2        1.981028765848       3.518199093750      38.780484000000
      2532    2        4.358263883929       3.518199093750      40.243896000000
      2533    2        5.150674591518       1.172733031250      38.780484000000
      2534    2        7.527910042412       1.172733031250      40.243896000000
      2535    2        6.735499334823       3.518199093750      38.780484000000
      2536    2        9.112731457589       3.518199093750      40.243896000000
      2537    2        9.905142165177       1.172733031250      38.780484000000
      2538    2       12.282377616071       1.172733031250      40.243896000000
      2539    2       11.489966908482       3.518199093750      38.780484000000
      2540    2       13.867202359376       3.518199093750      40.243896000000
      2541    2       14.659613066965       1.172733031250      38.780484000000
      2542    2       17.036848517858       1.172733031250      40.243896000000
      2543    2       16.244434482142       3.518199093750      38.780484000000
      2544    2       18.621669933035       3.518199093750      40.243896000000
      2545    2       19.414080640624       1.172733031250      38.780484000000
      2546    2       21.791316091518       1.172733031250      40.243896000000
      2547    2       20.998905383929       3.518199093750      38.780484000000
      2548    2       23.376140834823       3.518199093750      40.243896000000
      2549    2       24.168551542411       1.172733031250      38.780484000000
      2550    2       26.545783665177       1.172733031250      40.243896000000
      2551    2       25.753372957589       3.518199093750      38.780484000000
      2552    2       28.130608408482       3.518199093750      40.243896000000
      2553    2       28.923019116071       1.172733031250      38.780484000000
      2554    2       31.300254566965       1.172733031250      40.243896000000
      2555    2       30.507843859376       3.518199093750      38.780484000000
      2556    2       32.885075982142       3.518199093750      40.243896000000
      2557    2        0.396205686607       5.863665156250      38.780484000000
      2558    2        2.773440139062       5.863665156250      40.243896000000
      2559    2        1.981028765848       8.209131218750      38.780484000000
      2560    2        4.358263883929       8.209131218750      40.243896000000
      2561    2        5.150674591518       5.863665156250      38.780484000000
      2562    2        7.527910042412       5.863665156250      40.243896000000
      2563    2        6.735499334823       8.209131218750      38.780484000000
      2564    2        9.112731457589       8.209131218750      40.243896000000
      2565    2        9.905142165177       5.863665156250      38.780484000000
      2566    2       12.282377616071       5.863665156250      40.243896000000
      2567    2       11.489966908482       8.209131218750      38.780484000000
      2568    2       13.867202359376       8.209131218750      40.243896000000
      2569    2       14.659613066965       5.863665156250      38.780484000000
      2570    2       17.036848517858       5.863665156250      40.243896000000
      2571    2       16.244434482142       8.209131218750      38.780484000000
      2572    2       18.621669933035       8.209131218750      40.243896000000
      2573    2       19.414080640624       5.863665156250      38.780484000000
      2574    2       21.791316091518       5.863665156250      40.243896000000
      2575    2       20.998905383929       8.209131218750      38.780484000000
      2576    2       23.376140834823       8.209131218750      40.243896000000
      2577    2       24.168551542411       5.863665156250      38.780484000000
      2578    2       26.545783665177       5.863665156250      40.243896000000
      2579    2       25.753372957589       8.209131218750      38.780484000000
      2580    2       28.130608408482       8.209131218750      40.243896000000
      2581    2       28.923019116071       5.863665156250      38.780484000000
      2582    2       31.300254566965       5.863665156250      40.243896000000
      2583    2       30.507843859376       8.209131218750      38.780484000000
      2584    2       32.885075982142       8.209131218750      40.243896000000
      2585    2        0.396205686607      10.554597281250      38.780484000000
      2586    2        2.773440139062      10.554597281250      40.243896000000
      2587    2        1.981028765848      12.900063343750      38.780484000000
      2588    2        4.358263883929      12.900063343750      40.243896000000
      2589    2        5.150674591518      10.554597281250      38.780484000000
      2590    2        7.527910042412      10.554597281250      40.243896000000
      2591    2        6.735499334823      12.900063343750      38.780484000000
      2592    2        9.112731457589      12.900063343750      40.243896000000
      2593    2        9.905142165177      10.554597281250      38.780484000000
      2594    2       12.282377616071      10.554597281250      40.243896000000
      2595    2       11.489966908482      12.900063343750      38.780484000000
      2596    2       13.867202359376      12.900063343750      40.243896000000
      2597    2       14.659613066965      10.554597281250      38.780484000000
      2598    2       17.036848517858      10.554597281250      40.243896000000
      2599    2       16.244434482142      12.900063343750      38.780484000000
      2600    2       18.621669933035      12.900063343750      40.243896000000
      2601    2       19.414080640624      10.554597281250      38.780484000000
      2602    2       21.791316091518      10.554597281250      40.243896000000
      2603    2       20.998905383929      12.900063343750      38.780484000000
      2604    2       23.376140834823      12.900063343750      40.243896000000
      2605    2       24.168551542411      10.554597281250      38.780484000000
      2606    2       26.545783665177      10.554597281250      40.243896000000
      2607    2       25.753372957589      12.900063343750      38.780484000000
      2608    2       28.130608408482      12.900063343750      40.243896000000
      2609    2       28.923019116071      10.554597281250      38.780484000000
      2610    2       31.300254566965      10.554597281250      40.243896000000
      2611    2       30.507843859376      12.900063343750      38.780484000000
      2612    2       32.885075982142      12.900063343750      40.243896000000
      2613    2        0.396205686607      15.245529406250      38.780484000000
      2614    2        2.773440139062      15.245529406250      40.243896000000
      2615    2        1.981028765848      17.590995468750      38.780484000000
      2616    2        4.358263883929      17.590995468750      40.243896000000
      2617    2        5.150674591518      15.245529406250      38.780484000000
      2618    2        7.527910042412      15.245529406250      40.243896000000
      2619    2        6.735499334823      17.590995468750      38.780484000000
      2620    2        9.112731457589      17.590995468750      40.243896000000
      2621    2        9.905142165177      15.245529406250      38.780484000000
      2622    2       12.282377616071      15.245529406250      40.243896000000
      2623    2       11.489966908482      17.590995468750      38.780484000000
      2624    2       13.867202359376      17.590995468750      40.243896000000
      2625    2       14.659613066965      15.245529406250      38.780484000000
      2626    2       17.036848517858      15.245529406250      40.243896000000
      2627    2       16.244434482142      17.590995468750      38.780484000000
      2628    2       18.621669933035      17.590995468750      40.243896000000
      2629    2       19.414080640624      15.245529406250      38.780484000000
      2630    2       21.791316091518      15.245529406250      40.243896000000
      2631    2       20.998905383929      17.590995468750      38.780484000000
      2632    2       23.376140834823      17.590995468750      40.243896000000
      2633    2       24.168551542411      15.245529406250      38.780484000000
      2634    2       26.545783665177      15.245529406250      40.243896000000
      2635    2       25.753372957589      17.590995468750      38.780484000000
      2636    2       28.130608408482      17.590995468750      40.243896000000
      2637    2       28.923019116071      15.245529406250      38.780484000000
      2638    2       31.300254566965      15.245529406250      40.243896000000
      2639    2       30.507843859376      17.590995468750      38.780484000000
      2640    2       32.885075982142      17.590995468750      40.243896000000
      2641    2        0.396205686607      19.936461531250      38.780484000000
      2642    2        2.773440139062      19.936461531250      40.243896000000
      2643    2        1.981028765848      22.281927593750      38.780484000000
      2644    2        4.358263883929      22.281927593750      40.243896000000
      2645    2        5.150674591518      19.936461531250      38.780484000000
      2646    2        7.527910042412      19.936461531250      40.243896000000
      2647    2        6.735499334823      22.281927593750      38.780484000000
      2648    2        9.112731457589      22.281927593750      40.243896000000
      2649    2        9.905142165177      19.936461531250      38.780484000000
      2650    2       12.282377616071      19.936461531250      40.243896000000
      2651    2       11.489966908482      22.281927593750      38.780484000000
      2652    2       13.867202359376      22.281927593750      40.243896000000
      2653    2       14.659613066965      19.936461531250      38.780484000000
      2654    2       17.036848517858      19.936461531250      40.243896000000
      2655    2       16.244434482142      22.281927593750      38.780484000000
      2656    2       18.621669933035      22.281927593750      40.243896000000
      2657    2       19.414080640624      19.936461531250      38.780484000000
      2658    2       21.791316091518      19.936461531250      40.243896000000
      2659    2       20.998905383929      22.281927593750      38.780484000000
      2660    2       23.376140834823      22.281927593750      40.243896000000
      2661    2       24.168551542411      19.936461531250      38.780484000000
      2662    2       26.545783665177      19.936461531250      40.243896000000
      2663    2       25.753372957589      22.281927593750      38.780484000000
      2664    2       28.130608408482      22.281927593750      40.243896000000
      2665    2       28.923019116071      19.936461531250      38.780484000000
      2666    2       31.300254566965      19.936461531250      40.243896000000
      2667    2       30.507843859376      22.281927593750      38.780484000000
      2668    2       32.885075982142      22.281927593750      40.243896000000
      2669    2        0.396205686607      24.627393656250      38.780484000000
      2670    2        2.773440139062      24.627393656250      40.243896000000
      2671    2        1.981028765848      26.972859718750      38.780484000000
      2672    2        4.358263883929      26.972859718750      40.243896000000
      2673    2        5.150674591518      24.627393656250      38.780484000000
      2674    2        7.527910042412      24.627393656250      40.243896000000
      2675    2        6.735499334823      26.972859718750      38.780484000000
      2676    2        9.112731457589      26.972859718750      40.243896000000
      2677    2        9.905142165177      24.627393656250      38.780484000000
      2678    2       12.282377616071      24.627393656250      40.243896000000
      2679    2       11.489966908482      26.972859718750      38.780484000000
      2680    2       13.867202359376      26.972859718750      40.243896000000
      2681    2       14.659613066965      24.627393656250      38.780484000000
      2682    2       17.036848517858      24.627393656250      40.243896000000
      2683    2       16.244434482142      26.972859718750      38.780484000000
      2684    2       18.621669933035      26.972859718750      40.243896000000
      2685    2       19.414080640624      24.627393656250      38.780484000000
      2686    2       21.791316091518      24.627393656250      40.243896000000
      2687    2       20.998905383929      26.972859718750      38.780484000000
      2688    2       23.376140834823      26.972859718750      40.243896000000
      2689    2       24.168551542411      24.627393656250      38.780484000000
      2690    2       26.545783665177      24.627393656250      40.243896000000
      2691    2       25.753372957589      26.972859718750      38.780484000000
      2692    2       28.130608408482      26.972859718750      40.243896000000
      2693    2       28.923019116071      24.627393656250      38.780484000000
      2694    2       31.300254566965      24.627393656250      40.243896000000
      2695    2       30.507843859376      26.972859718750      38.780484000000
      2696    2       32.885075982142      26.972859718750      40.243896000000
      2697    2        0.396205686607      29.318325781250      38.780484000000
      2698    2        2.773440139062      29.318325781250      40.243896000000
      2699    2        1.981028765848      31.663791843750      38.780484000000
      2700    2        4.358263883929      31.663791843750      40.243896000000
      2701    2        5.150674591518      29.318325781250      38.780484000000
      2702    2        7.527910042412      29.318325781250      40.243896000000
      2703    2        6.735499334823      31.663791843750      38.780484000000
      2704    2        9.112731457589      31.663791843750      40.243896000000
      2705    2        9.905142165177      29.318325781250      38.780484000000
      2706    2       12.282377616071      29.318325781250      40.243896000000
      2707    2       11.489966908482      31.663791843750      38.780484000000
      2708    2       13.867202359376      31.663791843750      40.243896000000
      2709    2       14.659613066965      29.318325781250      38.780484000000
      2710    2       17.036848517858      29.318325781250      40.243896000000
      2711    2       16.244434482142      31.663791843750      38.780484000000
      2712    2       18.621669933035      31.663791843750      40.243896000000
      2713    2       19.414080640624      29.318325781250      38.780484000000
      2714    2       21.791316091518      29.318325781250      40.243896000000
      2715    2       20.998905383929      31.663791843750      38.780484000000
      2716    2       23.376140834823      31.663791843750      40.243896000000
      2717    2       24.168551542411      29.318325781250      38.780484000000
      2718    2       26.545783665177      29.318325781250      40.243896000000
      2719    2       25.753372957589      31.663791843750      38.780484000000
      2720    2       28.130608408482      31.663791843750      40.243896000000
      2721    2       28.923019116071      29.318325781250      38.780484000000
      2722    2       31.300254566965      29.318325781250      40.243896000000
      2723    2       30.507843859376      31.663791843750      38.780484000000
      2724    2       32.885075982142      31.663791843750      40.243896000000
      2725    2        0.396205686607      34.009257906250      38.780484000000
      2726    2        2.773440139062      34.009257906250      40.243896000000
      2727    2        1.981028765848      36.354723968750      38.780484000000
      2728    2        4.358263883929      36.354723968750      40.243896000000
      2729    2        5.150674591518      34.009257906250      38.780484000000
      2730    2        7.527910042412      34.009257906250      40.243896000000
      2731    2        6.735499334823      36.354723968750      38.780484000000
      2732    2        9.112731457589      36.354723968750      40.243896000000
      2733    2        9.905142165177      34.009257906250      38.780484000000
      2734    2       12.282377616071      34.009257906250      40.243896000000
      2735    2       11.489966908482      36.354723968750      38.780484000000
      2736    2       13.867202359376      36.354723968750      40.243896000000
      2737    2       14.659613066965      34.009257906250      38.780484000000
      2738    2       17.036848517858      34.009257906250      40.243896000000
      2739    2       16.244434482142      36.354723968750      38.780484000000
      2740    2       18.621669933035      36.354723968750      40.243896000000
      2741    2       19.414080640624      34.009257906250      38.780484000000
      2742    2       21.791316091518      34.009257906250      40.243896000000
      2743    2       20.998905383929      36.354723968750      38.780484000000
      2744    2       23.376140834823      36.354723968750      40.243896000000
      2745    2       24.168551542411      34.009257906250      38.780484000000
      2746    2       26.545783665177      34.009257906250      40.243896000000
      2747    2       25.753372957589      36.354723968750      38.780484000000
      2748    2       28.130608408482      36.354723968750      40.243896000000
      2749    2       28.923019116071      34.009257906250      38.780484000000
      2750    2       31.300254566965      34.009257906250      40.243896000000
      2751    2       30.507843859376      36.354723968750      38.780484000000
      2752    2       32.885075982142      36.354723968750      40.243896000000
      2753    2        0.396205686607       1.172733031250      41.707320000000
      2754    2        2.773440139062       1.172733031250      43.170732000000
      2755    2        1.981028765848       3.518199093750      41.707320000000
      2756    2        4.358263883929       3.518199093750      43.170732000000
      2757    2        5.150674591518       1.172733031250      41.707320000000
      2758    2        7.527910042412       1.172733031250      43.170732000000
      2759    2        6.735499334823       3.518199093750      41.707320000000
      2760    2        9.112731457589       3.518199093750      43.170732000000
      2761    2        9.905142165177       1.172733031250      41.707320000000
      2762    2       12.282377616071       1.172733031250      43.170732000000
      2763    2       11.489966908482       3.518199093750      41.707320000000
      2764    2       13.867202359376       3.518199093750      43.170732000000
      2765    2       14.659613066965       1.172733031250      41.707320000000
      2766    2       17.036848517858       1.172733031250      43.170732000000
      2767    2       16.244434482142       3.518199093750      41.707320000000
      2768    2       18.621669933035       3.518199093750      43.170732000000
      2769    2       19.414080640624       1.172733031250      41.707320000000
      2770    2       21.791316091518       1.172733031250      43.170732000000
      2771    2       20.998905383929       3.518199093750      41.707320000000
      2772    2       23.376140834823       3.518199093750      43.170732000000
      2773    2       24.168551542411       1.172733031250      41.707320000000
      2774    2       26.545783665177       1.172733031250      43.170732000000
      2775    2       25.753372957589       3.518199093750      41.707320000000
      2776    2       28.130608408482       3.518199093750      43.170732000000
      2777    2       28.923019116071       1.172733031250      41.707320000000
      2778    2       31.300254566965       1.172733031250      43.170732000000
      2779    2       30.507843859376       3.518199093750      41.707320000000
      2780    2       32.885075982142       3.518199093750      43.170732000000
      2781    2        0.396205686607       5.863665156250      41.707320000000
      2782    2        2.773440139062       5.863665156250      43.170732000000
      2783    2        1.981028765848       8.209131218750      41.707320000000
      2784    2        4.358263883929       8.209131218750      43.170732000000
      2785    2        5.150674591518       5.863665156250      41.707320000000
      2786    2        7.527910042412       5.863665156250      43.170732000000
      2787    2        6.735499334823       8.209131218750      41.707320000000
      2788    2        9.112731457589       8.209131218750      43.170732000000
      2789    2        9.905142165177       5.863665156250      41.707320000000
      2790    2       12.282377616071       5.863665156250      43.170732000000
      2791    2       11.489966908482       8.209131218750      41.707320000000
      2792    2       13.867202359376       8.209131218750      43.170732000000
      2793    2       14.659613066965       5.863665156250      41.707320000000
      2794    2       17.036848517858       5.863665156250      43.170732000000
      2795    2       16.244434482142       8.209131218750      41.707320000000
      2796    2       18.621669933035       8.209131218750      43.170732000000
      2797    2       19.414080640624       5.863665156250      41.707320000000
      2798    2       21.791316091518       5.863665156250      43.170732000000
      2799    2       20.998905383929       8.209131218750      41.707320000000
      2800    2       23.376140834823       8.209131218750      43.170732000000
      2801    2       24.168551542411       5.863665156250      41.707320000000
      2802    2       26.545783665177       5.863665156250      43.170732000000
      2803    2       25.753372957589       8.209131218750      41.707320000000
      2804    2       28.130608408482       8.209131218750      43.170732000000
      2805    2       28.923019116071       5.863665156250      41.707320000000
      2806    2       31.300254566965       5.863665156250      43.170732000000
      2807    2       30.507843859376       8.209131218750      41.707320000000
      2808    2       32.885075982142       8.209131218750      43.170732000000
      2809    2        0.396205686607      10.554597281250      41.707320000000
      2810    2        2.773440139062      10.554597281250      43.170732000000
      2811    2        1.981028765848      12.900063343750      41.707320000000
      2812    2        4.358263883929      12.900063343750      43.170732000000
      2813    2        5.150674591518      10.554597281250      41.707320000000
      2814    2        7.527910042412      10.554597281250      43.170732000000
      2815    2        6.735499334823      12.900063343750      41.707320000000
      2816    2        9.112731457589      12.900063343750      43.170732000000
      2817    2        9.905142165177      10.554597281250      41.707320000000
      2818    2       12.282377616071      10.554597281250      43.170732000000
      2819    2       11.489966908482      12.900063343750      41.707320000000
      2820    2       13.867202359376      12.900063343750      43.170732000000
      2821    2       14.659613066965      10.554597281250      41.707320000000
      2822    2       17.036848517858      10.554597281250      43.170732000000
      2823    2       16.244434482142      12.900063343750      41.707320000000
      2824    2       18.621669933035      12.900063343750      43.170732000000
      2825    2       19.414080640624      10.554597281250      41.707320000000
      2826    2       21.791316091518      10.554597281250      43.170732000000
      2827    2       20.998905383929      12.900063343750      41.707320000000
      2828    2       23.376140834823      12.900063343750      43.170732000000
      2829    2       24.168551542411      10.554597281250      41.707320000000
      2830    2       26.545783665177      10.554597281250      43.170732000000
      2831    2       25.753372957589      12.900063343750      41.707320000000
      2832    2       28.130608408482      12.900063343750      43.170732000000
      2833    2       28.923019116071      10.554597281250      41.707320000000
      2834    2       31.300254566965      10.554597281250      43.170732000000
      2835    2       30.507843859376      12.900063343750      41.707320000000
      2836    2       32.885075982142      12.900063343750      43.170732000000
      2837    2        0.396205686607      15.245529406250      41.707320000000
      2838    2        2.773440139062      15.245529406250      43.170732000000
      2839    2        1.981028765848      17.590995468750      41.707320000000
      2840    2        4.358263883929      17.590995468750      43.170732000000
      2841    2        5.150674591518      15.245529406250      41.707320000000
      2842    2        7.527910042412      15.245529406250      43.170732000000
      2843    2        6.735499334823      17.590995468750      41.707320000000
      2844    2        9.112731457589      17.590995468750      43.170732000000
      2845    2        9.905142165177      15.245529406250      41.707320000000
      2846    2       12.282377616071      15.245529406250      43.170732000000
      2847    2       11.489966908482      17.590995468750      41.707320000000
      2848    2       13.867202359376      17.590995468750      43.170732000000
      2849    2       14.659613066965      15.245529406250      41.707320000000
      2850    2       17.036848517858      15.245529406250      43.170732000000
      2851    2       16.244434482142      17.590995468750      41.707320000000
      2852    2       18.621669933035      17.590995468750      43.170732000000
      2853    2       19.414080640624      15.245529406250      41.707320000000
      2854    2       21.791316091518      15.245529406250      43.170732000000
      2855    2       20.998905383929      17.590995468750      41.707320000000
      2856    2       23.376140834823      17.590995468750      43.170732000000
      2857    2       24.168551542411      15.245529406250      41.707320000000
      2858    2       26.545783665177      15.245529406250      43.170732000000
      2859    2       25.753372957589      17.590995468750      41.707320000000
      2860    2       28.130608408482      17.590995468750      43.170732000000
      2861    2       28.923019116071      15.245529406250      41.707320000000
      2862    2       31.300254566965      15.245529406250      43.170732000000
      2863    2       30.507843859376      17.590995468750      41.707320000000
      2864    2       32.885075982142      17.590995468750      43.170732000000
      2865    2        0.396205686607      19.936461531250      41.707320000000
      2866    2        2.773440139062      19.936461531250      43.170732000000
      2867    2        1.981028765848      22.281927593750      41.707320000000
      2868    2        4.358263883929      22.281927593750      43.170732000000
      2869    2        5.150674591518      19.936461531250      41.707320000000
      2870    2        7.527910042412      19.936461531250      43.170732000000
      2871    2        6.735499334823      22.281927593750      41.707320000000
      2872    2        9.112731457589      22.281927593750      43.170732000000
      2873    2        9.905142165177      19.936461531250      41.707320000000
      2874    2       12.282377616071      19.936461531250      43.170732000000
      2875    2       11.489966908482      22.281927593750      41.707320000000
      2876    2       13.867202359376      22.281927593750      43.170732000000
      2877    2       14.659613066965      19.936461531250      41.707320000000
      2878    2       17.036848517858      19.936461531250      43.170732000000
      2879    2       16.244434482142      22.281927593750      41.707320000000
      2880    2       18.621669933035      22.281927593750      43.170732000000
      2881    2       19.414080640624      19.936461531250      41.707320000000
      2882    2       21.791316091518      19.936461531250      43.170732000000
      2883    2       20.998905383929      22.281927593750      41.707320000000
      2884    2       23.376140834823      22.281927593750      43.170732000000
      2885    2       24.168551542411      19.936461531250      41.707320000000
      2886    2       26.545783665177      19.936461531250      43.170732000000
      2887    2       25.753372957589      22.281927593750      41.707320000000
      2888    2       28.130608408482      22.281927593750      43.170732000000
      2889    2       28.923019116071      19.936461531250      41.707320000000
      2890    2       31.300254566965      19.936461531250      43.170732000000
      2891    2       30.507843859376      22.281927593750      41.707320000000
      2892    2       32.885075982142      22.281927593750      43.170732000000
      2893    2        0.396205686607      24.627393656250      41.707320000000
      2894    2        2.773440139062      24.627393656250      43.170732000000
      2895    2        1.981028765848      26.972859718750      41.707320000000
      2896    2        4.358263883929      26.972859718750      43.170732000000
      2897    2        5.150674591518      24.627393656250      41.707320000000
      2898    2        7.527910042412      24.627393656250      43.170732000000
      2899    2        6.735499334823      26.972859718750      41.707320000000
      2900    2        9.112731457589      26.972859718750      43.170732000000
      2901    2        9.905142165177      24.627393656250      41.707320000000
      2902    2       12.282377616071      24.627393656250      43.170732000000
      2903    2       11.489966908482      26.972859718750      41.707320000000
      2904    2       13.867202359376      26.972859718750      43.170732000000
      2905    2       14.659613066965      24.627393656250      41.707320000000
      2906    2       17.036848517858      24.627393656250      43.170732000000
      2907    2       16.244434482142      26.972859718750      41.707320000000
      2908    2       18.621669933035      26.972859718750      43.170732000000
      2909    2       19.414080640624      24.627393656250      41.707320000000
      2910    2       21.791316091518      24.627393656250      43.170732000000
      2911    2       20.998905383929      26.972859718750      41.707320000000
      2912    2       23.376140834823      26.972859718750      43.170732000000
      2913    2       24.168551542411      24.627393656250      41.707320000000
      2914    2       26.545783665177      24.627393656250      43.170732000000
      2915    2       25.753372957589      26.972859718750      41.707320000000
      2916    2       28.130608408482      26.972859718750      43.170732000000
      2917    2       28.923019116071      24.627393656250      41.707320000000
      2918    2       31.300254566965      24.627393656250      43.170732000000
      2919    2       30.507843859376      26.972859718750      41.707320000000
      2920    2       32.885075982142      26.972859718750      43.170732000000
      2921    2        0.396205686607      29.318325781250      41.707320000000
      2922    2        2.773440139062      29.318325781250      43.170732000000
      2923    2        1.981028765848      31.663791843750      41.707320000000
      2924    2        4.358263883929      31.663791843750      43.170732000000
      2925    2        5.150674591518      29.318325781250      41.707320000000
      2926    2        7.527910042412      29.318325781250      43.170732000000
      2927    2        6.735499334823      31.663791843750      41.707320000000
      2928    2        9.112731457589      31.663791843750      43.170732000000
      2929    2        9.905142165177      29.318325781250      41.707320000000
      2930    2       12.282377616071      29.318325781250      43.170732000000
      2931    2       11.489966908482      31.663791843750      41.707320000000
      2932    2       13.867202359376      31.663791843750      43.170732000000
      2933    2       14.659613066965      29.318325781250      41.707320000000
      2934    2       17.036848517858      29.318325781250      43.170732000000
      2935    2       16.244434482142      31.663791843750      41.707320000000
      2936    2       18.621669933035      31.663791843750      43.170732000000
      2937    2       19.414080640624      29.318325781250      41.707320000000
      2938    2       21.791316091518      29.318325781250      43.170732000000
      2939    2       20.998905383929      31.663791843750      41.707320000000
      2940    2       23.376140834823      31.663791843750      43.170732000000
      2941    2       24.168551542411      29.318325781250      41.707320000000
      2942    2       26.545783665177      29.318325781250      43.170732000000
      2943    2       25.753372957589      31.663791843750      41.707320000000
      2944    2       28.130608408482      31.663791843750      43.170732000000
      2945    2       28.923019116071      29.318325781250      41.707320000000
      2946    2       31.300254566965      29.318325781250      43.170732000000
      2947    2       30.507843859376      31.663791843750      41.707320000000
      2948    2       32.885075982142      31.663791843750      43.170732000000
      2949    2        0.396205686607      34.009257906250      41.707320000000
      2950    2        2.773440139062      34.009257906250      43.170732000000
      2951    2        1.981028765848      36.354723968750      41.707320000000
      2952    2        4.358263883929      36.354723968750      43.170732000000
      2953    2        5.150674591518      34.009257906250      41.707320000000
      2954    2        7.527910042412      34.009257906250      43.170732000000
      2955    2        6.735499334823      36.354723968750      41.707320000000
      2956    2        9.112731457589      36.354723968750      43.170732000000
      2957    2        9.905142165177      34.009257906250      41.707320000000
      2958    2       12.282377616071      34.009257906250      43.170732000000
      2959    2       11.489966908482      36.354723968750      41.707320000000
      2960    2       13.867202359376      36.354723968750      43.170732000000
      2961    2       14.659613066965      34.009257906250      41.707320000000
      2962    2       17.036848517858      34.009257906250      43.170732000000
      2963    2       16.244434482142      36.354723968750      41.707320000000
      2964    2       18.621669933035      36.354723968750      43.170732000000
      2965    2       19.414080640624      34.009257906250      41.707320000000
      2966    2       21.791316091518      34.009257906250      43.170732000000
      2967    2       20.998905383929      36.354723968750      41.707320000000
      2968    2       23.376140834823      36.354723968750      43.170732000000
      2969    2       24.168551542411      34.009257906250      41.707320000000
      2970    2       26.545783665177      34.009257906250      43.170732000000
      2971    2       25.753372957589      36.354723968750      41.707320000000
      2972    2       28.130608408482      36.354723968750      43.170732000000
      2973    2       28.923019116071      34.009257906250      41.707320000000
      2974    2       31.300254566965      34.009257906250      43.170732000000
      2975    2       30.507843859376      36.354723968750      41.707320000000
      2976    2       32.885075982142      36.354723968750      43.170732000000
      2977    2        0.396205686607       1.172733031250      44.634144000000
      2978    2        2.773440139062       1.172733031250      46.097556000000
      2979    2        1.981028765848       3.518199093750      44.634144000000
      2980    2        4.358263883929       3.518199093750      46.097556000000
      2981    2        5.150674591518       1.172733031250      44.634144000000
      2982    2        7.527910042412       1.172733031250      46.097556000000
      2983    2        6.735499334823       3.518199093750      44.634144000000
      2984    2        9.112731457589       3.518199093750      46.097556000000
      2985    2        9.905142165177       1.172733031250      44.634144000000
      2986    2       12.282377616071       1.172733031250      46.097556000000
      2987    2       11.489966908482       3.518199093750      44.634144000000
      2988    2       13.867202359376       3.518199093750      46.097556000000
      2989    2       14.659613066965       1.172733031250      44.634144000000
      2990    2       17.036848517858       1.172733031250      46.097556000000
      2991    2       16.244434482142       3.518199093750      44.634144000000
      2992    2       18.621669933035       3.518199093750      46.097556000000
      2993    2       19.414080640624       1.172733031250      44.634144000000
      2994    2       21.791316091518       1.172733031250      46.097556000000
      2995    2       20.998905383929       3.518199093750      44.634144000000
      2996    2       23.376140834823       3.518199093750      46.097556000000
      2997    2       24.168551542411       1.172733031250      44.634144000000
      2998    2       26.545783665177       1.172733031250      46.097556000000
      2999    2       25.753372957589       3.518199093750      44.634144000000
      3000    2       28.130608408482       3.518199093750      46.097556000000
      3001    2       28.923019116071       1.172733031250      44.634144000000
      3002    2       31.300254566965       1.172733031250      46.097556000000
      3003    2       30.507843859376       3.518199093750      44.634144000000
      3004    2       32.885075982142       3.518199093750      46.097556000000
      3005    2        0.396205686607       5.863665156250      44.634144000000
      3006    2        2.773440139062       5.863665156250      46.097556000000
      3007    2        1.981028765848       8.209131218750      44.634144000000
      3008    2        4.358263883929       8.209131218750      46.097556000000
      3009    2        5.150674591518       5.863665156250      44.634144000000
      3010    2        7.527910042412       5.863665156250      46.097556000000
      3011    2        6.735499334823       8.209131218750      44.634144000000
      3012    2        9.112731457589       8.209131218750      46.097556000000
      3013    2        9.905142165177       5.863665156250      44.634144000000
      3014    2       12.282377616071       5.863665156250      46.097556000000
      3015    2       11.489966908482       8.209131218750      44.634144000000
      3016    2       13.867202359376       8.209131218750      46.097556000000
      3017    2       14.659613066965       5.863665156250      44.634144000000
      3018    2       17.036848517858       5.863665156250      46.097556000000
      3019    2       16.244434482142       8.209131218750      44.634144000000
      3020    2       18.621669933035       8.209131218750      46.097556000000
      3021    2       19.414080640624       5.863665156250      44.634144000000
      3022    2       21.791316091518       5.863665156250      46.097556000000
      3023    2       20.998905383929       8.209131218750      44.634144000000
      3024    2       23.376140834823       8.209131218750      46.097556000000
      3025    2       24.168551542411       5.863665156250      44.634144000000
      3026    2       26.545783665177       5.863665156250      46.097556000000
      3027    2       25.753372957589       8.209131218750      44.634144000000
      3028    2       28.130608408482       8.209131218750      46.097556000000
      3029    2       28.923019116071       5.863665156250      44.634144000000
      3030    2       31.300254566965       5.863665156250      46.097556000000
      3031    2       30.507843859376       8.209131218750      44.634144000000
      3032    2       32.885075982142       8.209131218750      46.097556000000
      3033    2        0.396205686607      10.554597281250      44.634144000000
      3034    2        2.773440139062      10.554597281250      46.097556000000
      3035    2        1.981028765848      12.900063343750      44.634144000000
      3036    2        4.358263883929      12.900063343750      46.097556000000
      3037    2        5.150674591518      10.554597281250      44.634144000000
      3038    2        7.527910042412      10.554597281250      46.097556000000
      3039    2        6.735499334823      12.900063343750      44.634144000000
      3040    2        9.112731457589      12.900063343750      46.097556000000
      3041    2        9.905142165177      10.554597281250      44.634144000000
      3042    2       12.282377616071      10.554597281250      46.097556000000
      3043    2       11.489966908482      12.900063343750      44.634144000000
      3044    2       13.867202359376      12.900063343750      46.097556000000
      3045    2       14.659613066965      10.554597281250      44.634144000000
      3046    2       17.036848517858      10.554597281250      46.097556000000
      3047    2       16.244434482142      12.900063343750      44.634144000000
      3048    2       18.621669933035      12.900063343750      46.097556000000
      3049    2       19.414080640624      10.554597281250      44.634144000000
      3050    2       21.791316091518      10.554597281250      46.097556000000
      3051    2       20.998905383929      12.900063343750      44.634144000000
      3052    2       23.376140834823      12.900063343750      46.097556000000
      3053    2       24.168551542411      10.554597281250      44.634144000000
      3054    2       26.545783665177      10.554597281250      46.097556000000
      3055    2       25.753372957589      12.900063343750      44.634144000000
      3056    2       28.130608408482      12.900063343750      46.097556000000
      3057    2       28.923019116071      10.554597281250      44.634144000000
      3058    2       31.300254566965      10.554597281250      46.097556000000
      3059    2       30.507843859376      12.900063343750      44.634144000000
      3060    2       32.885075982142      12.900063343750      46.097556000000
      3061    2        0.396205686607      15.245529406250      44.634144000000
      3062    2        2.773440139062      15.245529406250      46.097556000000
      3063    2        1.981028765848      17.590995468750      44.634144000000
      3064    2        4.358263883929      17.590995468750      46.097556000000
      3065    2        5.150674591518      15.245529406250      44.634144000000
      3066    2        7.527910042412      15.245529406250      46.097556000000
      3067    2        6.735499334823      17.590995468750      44.634144000000
      3068    2        9.112731457589      17.590995468750      46.097556000000
      3069    2        9.905142165177      15.245529406250      44.634144000000
      3070    2       12.282377616071      15.245529406250      46.097556000000
      3071    2       11.489966908482      17.590995468750      44.634144000000
      3072    2       13.867202359376      17.590995468750      46.097556000000
      3073    2       14.659613066965      15.245529406250      44.634144000000
      3074    2       17.036848517858      15.245529406250      46.097556000000
      3075    2       16.244434482142      17.590995468750      44.634144000000
      3076    2       18.621669933035      17.590995468750      46.097556000000
      3077    2       19.414080640624      15.245529406250      44.634144000000
      3078    2       21.791316091518      15.245529406250      46.097556000000
      3079    2       20.998905383929      17.590995468750      44.634144000000
      3080    2       23.376140834823      17.590995468750      46.097556000000
      3081    2       24.168551542411      15.245529406250      44.634144000000
      3082    2       26.545783665177      15.245529406250      46.097556000000
      3083    2       25.753372957589      17.590995468750      44.634144000000
      3084    2       28.130608408482      17.590995468750      46.097556000000
      3085    2       28.923019116071      15.245529406250      44.634144000000
      3086    2       31.300254566965      15.245529406250      46.097556000000
      3087    2       30.507843859376      17.590995468750      44.634144000000
      3088    2       32.885075982142      17.590995468750      46.097556000000
      3089    2        0.396205686607      19.936461531250      44.634144000000
      3090    2        2.773440139062      19.936461531250      46.097556000000
      3091    2        1.981028765848      22.281927593750      44.634144000000
      3092    2        4.358263883929      22.281927593750      46.097556000000
      3093    2        5.150674591518      19.936461531250      44.634144000000
      3094    2        7.527910042412      19.936461531250      46.097556000000
      3095    2        6.735499334823      22.281927593750      44.634144000000
      3096    2        9.112731457589      22.281927593750      46.097556000000
      3097    2        9.905142165177      19.936461531250      44.634144000000
      3098    2       12.282377616071      19.936461531250      46.097556000000
      3099    2       11.489966908482      22.281927593750      44.634144000000
      3100    2       13.867202359376      22.281927593750      46.097556000000
      3101    2       14.659613066965      19.936461531250      44.634144000000
      3102    2       17.036848517858      19.936461531250      46.097556000000
      3103    2       16.244434482142      22.281927593750      44.634144000000
      3104    2       18.621669933035      22.281927593750      46.097556000000
      3105    2       19.414080640624      19.936461531250      44.634144000000
      3106    2       21.791316091518      19.936461531250      46.097556000000
      3107    2       20.998905383929      22.281927593750      44.634144000000
      3108    2       23.376140834823      22.281927593750      46.097556000000
      3109    2       24.168551542411      19.936461531250      44.634144000000
      3110    2       26.545783665177      19.936461531250      46.097556000000
      3111    2       25.753372957589      22.281927593750      44.634144000000
      3112    2       28.130608408482      22.281927593750      46.097556000000
      3113    2       28.923019116071      19.936461531250      44.634144000000
      3114    2       31.300254566965      19.936461531250      46.097556000000
      3115    2       30.507843859376      22.281927593750      44.634144000000
      3116    2       32.885075982142      22.281927593750      46.097556000000
      3117    2        0.396205686607      24.627393656250      44.634144000000
      3118    2        2.773440139062      24.627393656250      46.097556000000
      3119    2        1.981028765848      26.972859718750      44.634144000000
      3120    2        4.358263883929      26.972859718750      46.097556000000
      3121    2        5.150674591518      24.627393656250      44.634144000000
      3122    2        7.527910042412      24.627393656250      46.097556000000
      3123    2        6.735499334823      26.972859718750      44.634144000000
      3124    2        9.112731457589      26.972859718750      46.097556000000
      3125    2        9.905142165177      24.627393656250      44.634144000000
      3126    2       12.282377616071      24.627393656250      46.097556000000
      3127    2       11.489966908482      26.972859718750      44.634144000000
      3128    2       13.867202359376      26.972859718750      46.097556000000
      3129    2       14.659613066965      24.627393656250      44.634144000000
      3130    2       17.036848517858      24.627393656250      46.097556000000
      3131    2       16.244434482142      26.972859718750      44.634144000000
      3132    2       18.621669933035      26.972859718750      46.097556000000
      3133    2       19.414080640624      24.627393656250      44.634144000000
      3134    2       21.791316091518      24.627393656250      46.097556000000
      3135    2       20.998905383929      26.972859718750      44.634144000000
      3136    2       23.376140834823      26.972859718750      46.097556000000
      3137    2       24.168551542411      24.627393656250      44.634144000000
      3138    2       26.545783665177      24.627393656250      46.097556000000
      3139    2       25.753372957589      26.972859718750      44.634144000000
      3140    2       28.130608408482      26.972859718750      46.097556000000
      3141    2       28.923019116071      24.627393656250      44.634144000000
      3142    2       31.300254566965      24.627393656250      46.097556000000
      3143    2       30.507843859376      26.972859718750      44.634144000000
      3144    2       32.885075982142      26.972859718750      46.097556000000
      3145    2        0.396205686607      29.318325781250      44.634144000000
      3146    2        2.773440139062      29.318325781250      46.097556000000
      3147    2        1.981028765848      31.663791843750      44.634144000000
      3148    2        4.358263883929      31.663791843750      46.097556000000
      3149    2        5.150674591518      29.318325781250      44.634144000000
      3150    2        7.527910042412      29.318325781250      46.097556000000
      3151    2        6.735499334823      31.663791843750      44.634144000000
      3152    2        9.112731457589      31.663791843750      46.097556000000
      3153    2        9.905142165177      29.318325781250      44.634144000000
      3154    2       12.282377616071      29.318325781250      46.097556000000
      3155    2       11.489966908482      31.663791843750      44.634144000000
      3156    2       13.867202359376      31.663791843750      46.097556000000
      3157    2       14.659613066965      29.318325781250      44.634144000000
      3158    2       17.036848517858      29.318325781250      46.097556000000
      3159    2       16.244434482142      31.663791843750      44.634144000000
      3160    2       18.621669933035      31.663791843750      46.097556000000
      3161    2       19.414080640624      29.318325781250      44.634144000000
      3162    2       21.791316091518      29.318325781250      46.097556000000
      3163    2       20.998905383929      31.663791843750      44.634144000000
      3164    2       23.376140834823      31.663791843750      46.097556000000
      3165    2       24.168551542411      29.318325781250      44.634144000000
      3166    2       26.545783665177      29.318325781250      46.097556000000
      3167    2       25.753372957589      31.663791843750      44.634144000000
      3168    2       28.130608408482      31.663791843750      46.097556000000
      3169    2       28.923019116071      29.318325781250      44.634144000000
      3170    2       31.300254566965      29.318325781250      46.097556000000
      3171    2       30.507843859376      31.663791843750      44.634144000000
      3172    2       32.885075982142      31.663791843750      46.097556000000
      3173    2        0.396205686607      34.009257906250      44.634144000000
      3174    2        2.773440139062      34.009257906250      46.097556000000
      3175    2        1.981028765848      36.354723968750      44.634144000000
      3176    2        4.358263883929      36.354723968750      46.097556000000
      3177    2        5.150674591518      34.009257906250      44.634144000000
      3178    2        7.527910042412      34.009257906250      46.097556000000
      3179    2        6.735499334823      36.354723968750      44.634144000000
      3180    2        9.112731457589      36.354723968750      46.097556000000
      3181    2        9.905142165177      34.009257906250      44.634144000000
      3182    2       12.282377616071      34.009257906250      46.097556000000
      3183    2       11.489966908482      36.354723968750      44.634144000000
      3184    2       13.867202359376      36.354723968750      46.097556000000
      3185    2       14.659613066965      34.009257906250      44.634144000000
      3186    2       17.036848517858      34.009257906250      46.097556000000
      3187    2       16.244434482142      36.354723968750      44.634144000000
      3188    2       18.621669933035      36.354723968750      46.097556000000
      3189    2       19.414080640624      34.009257906250      44.634144000000
      3190    2       21.791316091518      34.009257906250      46.097556000000
      3191    2       20.998905383929      36.354723968750      44.634144000000
      3192    2       23.376140834823      36.354723968750      46.097556000000
      3193    2       24.168551542411      34.009257906250      44.634144000000
      3194    2       26.545783665177      34.009257906250      46.097556000000
      3195    2       25.753372957589      36.354723968750      44.634144000000
      3196    2       28.130608408482      36.354723968750      46.097556000000
      3197    2       28.923019116071      34.009257906250      44.634144000000
      3198    2       31.300254566965      34.009257906250      46.097556000000
      3199    2       30.507843859376      36.354723968750      44.634144000000
      3200    2       32.885075982142      36.354723968750      46.097556000000
      3201    2        0.396205686607       1.172733031250      47.560980000000
      3202    2        2.773440139062       1.172733031250      49.024392000000
      3203    2        1.981028765848       3.518199093750      47.560980000000
      3204    2        4.358263883929       3.518199093750      49.024392000000
      3205    2        5.150674591518       1.172733031250      47.560980000000
      3206    2        7.527910042412       1.172733031250      49.024392000000
      3207    2        6.735499334823       3.518199093750      47.560980000000
      3208    2        9.112731457589       3.518199093750      49.024392000000
      3209    2        9.905142165177       1.172733031250      47.560980000000
      3210    2       12.282377616071       1.172733031250      49.024392000000
      3211    2       11.489966908482       3.518199093750      47.560980000000
      3212    2       13.867202359376       3.518199093750      49.024392000000
      3213    2       14.659613066965       1.172733031250      47.560980000000
      3214    2       17.036848517858       1.172733031250      49.024392000000
      3215    2       16.244434482142       3.518199093750      47.560980000000
      3216    2       18.621669933035       3.518199093750      49.024392000000
      3217    2       19.414080640624       1.172733031250      47.560980000000
      3218    2       21.791316091518       1.172733031250      49.024392000000
      3219    2       20.998905383929       3.518199093750      47.560980000000
      3220    2       23.376140834823       3.518199093750      49.024392000000
      3221    2       24.168551542411       1.172733031250      47.560980000000
      3222    2       26.545783665177       1.172733031250      49.024392000000
      3223    2       25.753372957589       3.518199093750      47.560980000000
      3224    2       28.130608408482       3.518199093750      49.024392000000
      3225    2       28.923019116071       1.172733031250      47.560980000000
      3226    2       31.300254566965       1.172733031250      49.024392000000
      3227    2       30.507843859376       3.518199093750      47.560980000000
      3228    2       32.885075982142       3.518199093750      49.024392000000
      3229    2        0.396205686607       5.863665156250      47.560980000000
      3230    2        2.773440139062       5.863665156250      49.024392000000
      3231    2        1.981028765848       8.209131218750      47.560980000000
      3232    2        4.358263883929       8.209131218750      49.024392000000
      3233    2        5.150674591518       5.863665156250      47.560980000000
      3234    2        7.527910042412       5.863665156250      49.024392000000
      3235    2        6.735499334823       8.209131218750      47.560980000000
      3236    2        9.112731457589       8.209131218750      49.024392000000
      3237    2        9.905142165177       5.863665156250      47.560980000000
      3238    2       12.282377616071       5.863665156250      49.024392000000
      3239    2       11.489966908482       8.209131218750      47.560980000000
      3240    2       13.867202359376       8.209131218750      49.024392000000
      3241    2       14.659613066965       5.863665156250      47.560980000000
      3242    2       17.036848517858       5.863665156250      49.024392000000
      3243    2       16.244434482142       8.209131218750      47.560980000000
      3244    2       18.621669933035       8.209131218750      49.024392000000
      3245    2       19.414080640624       5.863665156250      47.560980000000
      3246    2       21.791316091518       5.863665156250      49.024392000000
      3247    2       20.998905383929       8.209131218750      47.560980000000
      3248    2       23.376140834823       8.209131218750      49.024392000000
      3249    2       24.168551542411       5.863665156250      47.560980000000
      3250    2       26.545783665177       5.863665156250      49.024392000000
      3251    2       25.753372957589       8.209131218750      47.560980000000
      3252    2       28.130608408482       8.209131218750      49.024392000000
      3253    2       28.923019116071       5.863665156250      47.560980000000
      3254    2       31.300254566965       5.863665156250      49.024392000000
      3255    2       30.507843859376       8.209131218750      47.560980000000
      3256    2       32.885075982142       8.209131218750      49.024392000000
      3257    2        0.396205686607      10.554597281250      47.560980000000
      3258    2        2.773440139062      10.554597281250      49.024392000000
      3259    2        1.981028765848      12.900063343750      47.560980000000
      3260    2        4.358263883929      12.900063343750      49.024392000000
      3261    2        5.150674591518      10.554597281250      47.560980000000
      3262    2        7.527910042412      10.554597281250      49.024392000000
      3263    2        6.735499334823      12.900063343750      47.560980000000
      3264    2        9.112731457589      12.900063343750      49.024392000000
      3265    2        9.905142165177      10.554597281250      47.560980000000
      3266    2       12.282377616071      10.554597281250      49.024392000000
      3267    2       11.489966908482      12.900063343750      47.560980000000
      3268    2       13.867202359376      12.900063343750      49.024392000000
      3269    2       14.659613066965      10.554597281250      47.560980000000
      3270    2       17.036848517858      10.554597281250      49.024392000000
      3271    2       16.244434482142      12.900063343750      47.560980000000
      3272    2       18.621669933035      12.900063343750      49.024392000000
      3273    2       19.414080640624      10.554597281250      47.560980000000
      3274    2       21.791316091518      10.554597281250      49.024392000000
      3275    2       20.998905383929      12.900063343750      47.560980000000
      3276    2       23.376140834823      12.900063343750      49.024392000000
      3277    2       24.168551542411      10.554597281250      47.560980000000
      3278    2       26.545783665177      10.554597281250      49.024392000000
      3279    2       25.753372957589      12.900063343750      47.560980000000
      3280    2       28.130608408482      12.900063343750      49.024392000000
      3281    2       28.923019116071      10.554597281250      47.560980000000
      3282    2       31.300254566965      10.554597281250      49.024392000000
      3283    2       30.507843859376      12.900063343750      47.560980000000
      3284    2       32.885075982142      12.900063343750      49.024392000000
      3285    2        0.396205686607      15.245529406250      47.560980000000
      3286    2        2.773440139062      15.245529406250      49.024392000000
      3287    2        1.981028765848      17.590995468750      47.560980000000
      3288    2        4.358263883929      17.590995468750      49.024392000000
      3289    2        5.150674591518      15.245529406250      47.560980000000
      3290    2        7.527910042412      15.245529406250      49.024392000000
      3291    2        6.735499334823      17.590995468750      47.560980000000
      3292    2        9.112731457589      17.590995468750      49.024392000000
      3293    2        9.905142165177      15.245529406250      47.560980000000
      3294    2       12.282377616071      15.245529406250      49.024392000000
      3295    2       11.489966908482      17.590995468750      47.560980000000
      3296    2       13.867202359376      17.590995468750      49.024392000000
      3297    2       14.659613066965      15.245529406250      47.560980000000
      3298    2       17.036848517858      15.245529406250      49.024392000000
      3299    2       16.244434482142      17.590995468750      47.560980000000
      3300    2       18.621669933035      17.590995468750      49.024392000000
      3301    2       19.414080640624      15.245529406250      47.560980000000
      3302    2       21.791316091518      15.245529406250      49.024392000000
      3303    2       20.998905383929      17.590995468750      47.560980000000
      3304    2       23.376140834823      17.590995468750      49.024392000000
      3305    2       24.168551542411      15.245529406250      47.560980000000
      3306    2       26.545783665177      15.245529406250      49.024392000000
      3307    2       25.753372957589      17.590995468750      47.560980000000
      3308    2       28.130608408482      17.590995468750      49.024392000000
      3309    2       28.923019116071      15.245529406250      47.560980000000
      3310    2       31.300254566965      15.245529406250      49.024392000000
      3311    2       30.507843859376      17.590995468750      47.560980000000
      3312    2       32.885075982142      17.590995468750      49.024392000000
      3313    2        0.396205686607      19.936461531250      47.560980000000
      3314    2        2.773440139062      19.936461531250      49.024392000000
      3315    2        1.981028765848      22.281927593750      47.560980000000
      3316    2        4.358263883929      22.281927593750      49.024392000000
      3317    2        5.150674591518      19.936461531250      47.560980000000
      3318    2        7.527910042412      19.936461531250      49.024392000000
      3319    2        6.735499334823      22.281927593750      47.560980000000
      3320    2        9.112731457589      22.281927593750      49.024392000000
      3321    2        9.905142165177      19.936461531250      47.560980000000
      3322    2       12.282377616071      19.936461531250      49.024392000000
      3323    2       11.489966908482      22.281927593750      47.560980000000
      3324    2       13.867202359376      22.281927593750      49.024392000000
      3325    2       14.659613066965      19.936461531250      47.560980000000
      3326    2       17.036848517858      19.936461531250      49.024392000000
      3327    2       16.244434482142      22.281927593750      47.560980000000
      3328    2       18.621669933035      22.281927593750      49.024392000000
      3329    2       19.414080640624      19.936461531250      47.560980000000
      3330    2       21.791316091518      19.936461531250      49.024392000000
      3331    2       20.998905383929      22.281927593750      47.560980000000
      3332    2       23.376140834823      22.281927593750      49.024392000000
      3333    2       24.168551542411      19.936461531250      47.560980000000
      3334    2       26.545783665177      19.936461531250      49.024392000000
      3335    2       25.753372957589      22.281927593750      47.560980000000
      3336    2       28.130608408482      22.281927593750      49.024392000000
      3337    2       28.923019116071      19.936461531250      47.560980000000
      3338    2       31.300254566965      19.936461531250      49.024392000000
      3339    2       30.507843859376      22.281927593750      47.560980000000
      3340    2       32.885075982142      22.281927593750      49.024392000000
      3341    2        0.396205686607      24.627393656250      47.560980000000
      3342    2        2.773440139062      24.627393656250      49.024392000000
      3343    2        1.981028765848      26.972859718750      47.560980000000
      3344    2        4.358263883929      26.972859718750      49.024392000000
      3345    2        5.150674591518      24.627393656250      47.560980000000
      3346    2        7.527910042412      24.627393656250      49.024392000000
      3347    2        6.735499334823      26.972859718750      47.560980000000
      3348    2        9.112731457589      26.972859718750      49.024392000000
      3349    2        9.905142165177      24.627393656250      47.560980000000
      3350    2       12.282377616071      24.627393656250      49.024392000000
      3351    2       11.489966908482      26.972859718750      47.560980000000
      3352    2       13.867202359376      26.972859718750      49.024392000000
      3353    2       14.659613066965      24.627393656250      47.560980000000
      3354    2       17.036848517858      24.627393656250      49.024392000000
      3355    2       16.244434482142      26.972859718750      47.560980000000
      3356    2       18.621669933035      26.972859718750      49.024392000000
      3357    2       19.414080640624      24.627393656250      47.560980000000
      3358    2       21.791316091518      24.627393656250      49.024392000000
      3359    2       20.998905383929      26.972859718750      47.560980000000
      3360    2       23.376140834823      26.972859718750      49.024392000000
      3361    2       24.168551542411      24.627393656250      47.560980000000
      3362    2       26.545783665177      24.627393656250      49.024392000000
      3363    2       25.753372957589      26.972859718750      47.560980000000
      3364    2       28.130608408482      26.972859718750      49.024392000000
      3365    2       28.923019116071      24.627393656250      47.560980000000
      3366    2       31.300254566965      24.627393656250      49.024392000000
      3367    2       30.507843859376      26.972859718750      47.560980000000
      3368    2       32.885075982142      26.972859718750      49.024392000000
      3369    2        0.396205686607      29.318325781250      47.560980000000
      3370    2        2.773440139062      29.318325781250      49.024392000000
      3371    2        1.981028765848      31.663791843750      47.560980000000
      3372    2        4.358263883929      31.663791843750      49.024392000000
      3373    2        5.150674591518      29.318325781250      47.560980000000
      3374    2        7.527910042412      29.318325781250      49.024392000000
      3375    2        6.735499334823      31.663791843750      47.560980000000
      3376    2        9.112731457589      31.663791843750      49.024392000000
      3377    2        9.905142165177      29.318325781250      47.560980000000
      3378    2       12.282377616071      29.318325781250      49.024392000000
      3379    2       11.489966908482      31.663791843750      47.560980000000
      3380    2       13.867202359376      31.663791843750      49.024392000000
      3381    2       14.659613066965      29.318325781250      47.560980000000
      3382    2       17.036848517858      29.318325781250      49.024392000000
      3383    2       16.244434482142      31.663791843750      47.560980000000
      3384    2       18.621669933035      31.663791843750      49.024392000000
      3385    2       19.414080640624      29.318325781250      47.560980000000
      3386    2       21.791316091518      29.318325781250      49.024392000000
      3387    2       20.998905383929      31.663791843750      47.560980000000
      3388    2       23.376140834823      31.663791843750      49.024392000000
      3389    2       24.168551542411      29.318325781250      47.560980000000
      3390    2       26.545783665177      29.318325781250      49.024392000000
      3391    2       25.753372957589      31.663791843750      47.560980000000
      3392    2       28.130608408482      31.663791843750      49.024392000000
      3393    2       28.923019116071      29.318325781250      47.560980000000
      3394    2       31.300254566965      29.318325781250      49.024392000000
      3395    2       30.507843859376      31.663791843750      47.560980000000
      3396    2       32.885075982142      31.663791843750      49.024392000000
      3397    2        0.396205686607      34.009257906250      47.560980000000
      3398    2        2.773440139062      34.009257906250      49.024392000000
      3399    2        1.981028765848      36.354723968750      47.560980000000
      3400    2        4.358263883929      36.354723968750      49.024392000000
      3401    2        5.150674591518      34.009257906250      47.560980000000
      3402    2        7.527910042412      34.009257906250      49.024392000000
      3403    2        6.735499334823      36.354723968750      47.560980000000
      3404    2        9.112731457589      36.354723968750      49.024392000000
      3405    2        9.905142165177      34.009257906250      47.560980000000
      3406    2       12.282377616071      34.009257906250      49.024392000000
      3407    2       11.489966908482      36.354723968750      47.560980000000
      3408    2       13.867202359376      36.354723968750      49.024392000000
      3409    2       14.659613066965      34.009257906250      47.560980000000
      3410    2       17.036848517858      34.009257906250      49.024392000000
      3411    2       16.244434482142      36.354723968750      47.560980000000
      3412    2       18.621669933035      36.354723968750      49.024392000000
      3413    2       19.414080640624      34.009257906250      47.560980000000
      3414    2       21.791316091518      34.009257906250      49.024392000000
      3415    2       20.998905383929      36.354723968750      47.560980000000
      3416    2       23.376140834823      36.354723968750      49.024392000000
      3417    2       24.168551542411      34.009257906250      47.560980000000
      3418    2       26.545783665177      34.009257906250      49.024392000000
      3419    2       25.753372957589      36.354723968750      47.560980000000
      3420    2       28.130608408482      36.354723968750      49.024392000000
      3421    2       28.923019116071      34.009257906250      47.560980000000
      3422    2       31.300254566965      34.009257906250      49.024392000000
      3423    2       30.507843859376      36.354723968750      47.560980000000
      3424    2       32.885075982142      36.354723968750      49.024392000000
      3425    2        0.396205686607       1.172733031250      50.487804000000
      3426    2        2.773440139062       1.172733031250      51.951216000000
      3427    2        1.981028765848       3.518199093750      50.487804000000
      3428    2        4.358263883929       3.518199093750      51.951216000000
      3429    2        5.150674591518       1.172733031250      50.487804000000
      3430    2        7.527910042412       1.172733031250      51.951216000000
      3431    2        6.735499334823       3.518199093750      50.487804000000
      3432    2        9.112731457589       3.518199093750      51.951216000000
      3433    2        9.905142165177       1.172733031250      50.487804000000
      3434    2       12.282377616071       1.172733031250      51.951216000000
      3435    2       11.489966908482       3.518199093750      50.487804000000
      3436    2       13.867202359376       3.518199093750      51.951216000000
      3437    2       14.659613066965       1.172733031250      50.487804000000
      3438    2       17.036848517858       1.172733031250      51.951216000000
      3439    2       16.244434482142       3.518199093750      50.487804000000
      3440    2       18.621669933035       3.518199093750      51.951216000000
      3441    2       19.414080640624       1.172733031250      50.487804000000
      3442    2       21.791316091518       1.172733031250      51.951216000000
      3443    2       20.998905383929       3.518199093750      50.487804000000
      3444    2       23.376140834823       3.518199093750      51.951216000000
      3445    2       24.168551542411       1.172733031250      50.487804000000
      3446    2       26.545783665177       1.172733031250      51.951216000000
      3447    2       25.753372957589       3.518199093750      50.487804000000
      3448    2       28.130608408482       3.518199093750      51.951216000000
      3449    2       28.923019116071       1.172733031250      50.487804000000
      3450    2       31.300254566965       1.172733031250      51.951216000000
      3451    2       30.507843859376       3.518199093750      50.487804000000
      3452    2       32.885075982142       3.518199093750      51.951216000000
      3453    2        0.396205686607       5.863665156250      50.487804000000
      3454    2        2.773440139062       5.863665156250      51.951216000000
      3455    2        1.981028765848       8.209131218750      50.487804000000
      3456    2        4.358263883929       8.209131218750      51.951216000000
      3457    2        5.150674591518       5.863665156250      50.487804000000
      3458    2        7.527910042412       5.863665156250      51.951216000000
      3459    2        6.735499334823       8.209131218750      50.487804000000
      3460    2        9.112731457589       8.209131218750      51.951216000000
      3461    2        9.905142165177       5.863665156250      50.487804000000
      3462    2       12.282377616071       5.863665156250      51.951216000000
      3463    2       11.489966908482       8.209131218750      50.487804000000
      3464    2       13.867202359376       8.209131218750      51.951216000000
      3465    2       14.659613066965       5.863665156250      50.487804000000
      3466    2       17.036848517858       5.863665156250      51.951216000000
      3467    2       16.244434482142       8.209131218750      50.487804000000
      3468    2       18.621669933035       8.209131218750      51.951216000000
      3469    2       19.414080640624       5.863665156250      50.487804000000
      3470    2       21.791316091518       5.863665156250      51.951216000000
      3471    2       20.998905383929       8.209131218750      50.487804000000
      3472    2       23.376140834823       8.209131218750      51.951216000000
      3473    2       24.168551542411       5.863665156250      50.487804000000
      3474    2       26.545783665177       5.863665156250      51.951216000000
      3475    2       25.753372957589       8.209131218750      50.487804000000
      3476    2       28.130608408482       8.209131218750      51.951216000000
      3477    2       28.923019116071       5.863665156250      50.487804000000
      3478    2       31.300254566965       5.863665156250      51.951216000000
      3479    2       30.507843859376       8.209131218750      50.487804000000
      3480    2       32.885075982142       8.209131218750      51.951216000000
      3481    2        0.396205686607      10.554597281250      50.487804000000
      3482    2        2.773440139062      10.554597281250      51.951216000000
      3483    2        1.981028765848      12.900063343750      50.487804000000
      3484    2        4.358263883929      12.900063343750      51.951216000000
      3485    2        5.150674591518      10.554597281250      50.487804000000
      3486    2        7.527910042412      10.554597281250      51.951216000000
      3487    2        6.735499334823      12.900063343750      50.487804000000
      3488    2        9.112731457589      12.900063343750      51.951216000000
      3489    2        9.905142165177      10.554597281250      50.487804000000
      3490    2       12.282377616071      10.554597281250      51.951216000000
      3491    2       11.489966908482      12.900063343750      50.487804000000
      3492    2       13.867202359376      12.900063343750      51.951216000000
      3493    2       14.659613066965      10.554597281250      50.487804000000
      3494    2       17.036848517858      10.554597281250      51.951216000000
      3495    2       16.244434482142      12.900063343750      50.487804000000
      3496    2       18.621669933035      12.900063343750      51.951216000000
      3497    2       19.414080640624      10.554597281250      50.487804000000
      3498    2       21.791316091518      10.554597281250      51.951216000000
      3499    2       20.998905383929      12.900063343750      50.487804000000
      3500    2       23.376140834823      12.900063343750      51.951216000000
      3501    2       24.168551542411      10.554597281250      50.487804000000
      3502    2       26.545783665177      10.554597281250      51.951216000000
      3503    2       25.753372957589      12.900063343750      50.487804000000
      3504    2       28.130608408482      12.900063343750      51.951216000000
      3505    2       28.923019116071      10.554597281250      50.487804000000
      3506    2       31.300254566965      10.554597281250      51.951216000000
      3507    2       30.507843859376      12.900063343750      50.487804000000
      3508    2       32.885075982142      12.900063343750      51.951216000000
      3509    2        0.396205686607      15.245529406250      50.487804000000
      3510    2        2.773440139062      15.245529406250      51.951216000000
      3511    2        1.981028765848      17.590995468750      50.487804000000
      3512    2        4.358263883929      17.590995468750      51.951216000000
      3513    2        5.150674591518      15.245529406250      50.487804000000
      3514    2        7.527910042412      15.245529406250      51.951216000000
      3515    2        6.735499334823      17.590995468750      50.487804000000
      3516    2        9.112731457589      17.590995468750      51.951216000000
      3517    2        9.905142165177      15.245529406250      50.487804000000
      3518    2       12.282377616071      15.245529406250      51.951216000000
      3519    2       11.489966908482      17.590995468750      50.487804000000
      3520    2       13.867202359376      17.590995468750      51.951216000000
      3521    2       14.659613066965      15.245529406250      50.487804000000
      3522    2       17.036848517858      15.245529406250      51.951216000000
      3523    2       16.244434482142      17.590995468750      50.487804000000
      3524    2       18.621669933035      17.590995468750      51.951216000000
      3525    2       19.414080640624      15.245529406250      50.487804000000
      3526    2       21.791316091518      15.245529406250      51.951216000000
      3527    2       20.998905383929      17.590995468750      50.487804000000
      3528    2       23.376140834823      17.590995468750      51.951216000000
      3529    2       24.168551542411      15.245529406250      50.487804000000
      3530    2       26.545783665177      15.245529406250      51.951216000000
      3531    2       25.753372957589      17.590995468750      50.487804000000
      3532    2       28.130608408482      17.590995468750      51.951216000000
      3533    2       28.923019116071      15.245529406250      50.487804000000
      3534    2       31.300254566965      15.245529406250      51.951216000000
      3535    2       30.507843859376      17.590995468750      50.487804000000
      3536    2       32.885075982142      17.590995468750      51.951216000000
      3537    2        0.396205686607      19.936461531250      50.487804000000
      3538    2        2.773440139062      19.936461531250      51.951216000000
      3539    2        1.981028765848      22.281927593750      50.487804000000
      3540    2        4.358263883929      22.281927593750      51.951216000000
      3541    2        5.150674591518      19.936461531250      50.487804000000
      3542    2        7.527910042412      19.936461531250      51.951216000000
      3543    2        6.735499334823      22.281927593750      50.487804000000
      3544    2        9.112731457589      22.281927593750      51.951216000000
      3545    2        9.905142165177      19.936461531250      50.487804000000
      3546    2       12.282377616071      19.936461531250      51.951216000000
      3547    2       11.489966908482      22.281927593750      50.487804000000
      3548    2       13.867202359376      22.281927593750      51.951216000000
      3549    2       14.659613066965      19.936461531250      50.487804000000
      3550    2       17.036848517858      19.936461531250      51.951216000000
      3551    2       16.244434482142      22.281927593750      50.487804000000
      3552    2       18.621669933035      22.281927593750      51.951216000000
      3553    2       19.414080640624      19.936461531250      50.487804000000
      3554    2       21.791316091518      19.936461531250      51.951216000000
      3555    2       20.998905383929      22.281927593750      50.487804000000
      3556    2       23.376140834823      22.281927593750      51.951216000000
      3557    2       24.168551542411      19.936461531250      50.487804000000
      3558    2       26.545783665177      19.936461531250      51.951216000000
      3559    2       25.753372957589      22.281927593750      50.487804000000
      3560    2       28.130608408482      22.281927593750      51.951216000000
      3561    2       28.923019116071      19.936461531250      50.487804000000
      3562    2       31.300254566965      19.936461531250      51.951216000000
      3563    2       30.507843859376      22.281927593750      50.487804000000
      3564    2       32.885075982142      22.281927593750      51.951216000000
      3565    2        0.396205686607      24.627393656250      50.487804000000
      3566    2        2.773440139062      24.627393656250      51.951216000000
      3567    2        1.981028765848      26.972859718750      50.487804000000
      3568    2        4.358263883929      26.972859718750      51.951216000000
      3569    2        5.150674591518      24.627393656250      50.487804000000
      3570    2        7.527910042412      24.627393656250      51.951216000000
      3571    2        6.735499334823      26.972859718750      50.487804000000
      3572    2        9.112731457589      26.972859718750      51.951216000000
      3573    2        9.905142165177      24.627393656250      50.487804000000
      3574    2       12.282377616071      24.627393656250      51.951216000000
      3575    2       11.489966908482      26.972859718750      50.487804000000
      3576    2       13.867202359376      26.972859718750      51.951216000000
      3577    2       14.659613066965      24.627393656250      50.487804000000
      3578    2       17.036848517858      24.627393656250      51.951216000000
      3579    2       16.244434482142      26.972859718750      50.487804000000
      3580    2       18.621669933035      26.972859718750      51.951216000000
      3581    2       19.414080640624      24.627393656250      50.487804000000
      3582    2       21.791316091518      24.627393656250      51.951216000000
      3583    2       20.998905383929      26.972859718750      50.487804000000
      3584    2       23.376140834823      26.972859718750      51.951216000000
      3585    2       24.168551542411      24.627393656250      50.487804000000
      3586    2       26.545783665177      24.627393656250      51.951216000000
      3587    2       25.753372957589      26.972859718750      50.487804000000
      3588    2       28.130608408482      26.972859718750      51.951216000000
      3589    2       28.923019116071      24.627393656250      50.487804000000
      3590    2       31.300254566965      24.627393656250      51.951216000000
      3591    2       30.507843859376      26.972859718750      50.487804000000
      3592    2       32.885075982142      26.972859718750      51.951216000000
      3593    2        0.396205686607      29.318325781250      50.487804000000
      3594    2        2.773440139062      29.318325781250      51.951216000000
      3595    2        1.981028765848      31.663791843750      50.487804000000
      3596    2        4.358263883929      31.663791843750      51.951216000000
      3597    2        5.150674591518      29.318325781250      50.487804000000
      3598    2        7.527910042412      29.318325781250      51.951216000000
      3599    2        6.735499334823      31.663791843750      50.487804000000
      3600    2        9.112731457589      31.663791843750      51.951216000000
      3601    2        9.905142165177      29.318325781250      50.487804000000
      3602    2       12.282377616071      29.318325781250      51.951216000000
      3603    2       11.489966908482      31.663791843750      50.487804000000
      3604    2       13.867202359376      31.663791843750      51.951216000000
      3605    2       14.659613066965      29.318325781250      50.487804000000
      3606    2       17.036848517858      29.318325781250      51.951216000000
      3607    2       16.244434482142      31.663791843750      50.487804000000
      3608    2       18.621669933035      31.663791843750      51.951216000000
      3609    2       19.414080640624      29.318325781250      50.487804000000
      3610    2       21.791316091518      29.318325781250      51.951216000000
      3611    2       20.998905383929      31.663791843750      50.487804000000
      3612    2       23.376140834823      31.663791843750      51.951216000000
      3613    2       24.168551542411      29.318325781250      50.487804000000
      3614    2       26.545783665177      29.318325781250      51.951216000000
      3615    2       25.753372957589      31.663791843750      50.487804000000
      3616    2       28.130608408482      31.663791843750      51.951216000000
      3617    2       28.923019116071      29.318325781250      50.487804000000
      3618    2       31.300254566965      29.318325781250      51.951216000000
      3619    2       30.507843859376      31.663791843750      50.487804000000
      3620    2       32.885075982142      31.663791843750      51.951216000000
      3621    2        0.396205686607      34.009257906250      50.487804000000
      3622    2        2.773440139062      34.009257906250      51.951216000000
      3623    2        1.981028765848      36.354723968750      50.487804000000
      3624    2        4.358263883929      36.354723968750      51.951216000000
      3625    2        5.150674591518      34.009257906250      50.487804000000
      3626    2        7.527910042412      34.009257906250      51.951216000000
      3627    2        6.735499334823      36.354723968750      50.487804000000
      3628    2        9.112731457589      36.354723968750      51.951216000000
      3629    2        9.905142165177      34.009257906250      50.487804000000
      3630    2       12.282377616071      34.009257906250      51.951216000000
      3631    2       11.489966908482      36.354723968750      50.487804000000
      3632    2       13.867202359376      36.354723968750      51.951216000000
      3633    2       14.659613066965      34.009257906250      50.487804000000
      3634    2       17.036848517858      34.009257906250      51.951216000000
      3635    2       16.244434482142      36.354723968750      50.487804000000
      3636    2       18.621669933035      36.354723968750      51.951216000000
      3637    2       19.414080640624      34.009257906250      50.487804000000
      3638    2       21.791316091518      34.009257906250      51.951216000000
      3639    2       20.998905383929      36.354723968750      50.487804000000
      3640    2       23.376140834823      36.354723968750      51.951216000000
      3641    2       24.168551542411      34.009257906250      50.487804000000
      3642    2       26.545783665177      34.009257906250      51.951216000000
      3643    2       25.753372957589      36.354723968750      50.487804000000
      3644    2       28.130608408482      36.354723968750      51.951216000000
      3645    2       28.923019116071      34.009257906250      50.487804000000
      3646    2       31.300254566965      34.009257906250      51.951216000000
      3647    2       30.507843859376      36.354723968750      50.487804000000
      3648    2       32.885075982142      36.354723968750      51.951216000000
      3649    2        0.396205686607       1.172733031250      53.414628000000
      3650    2        2.773440139062       1.172733031250      54.878052000000
      3651    2        1.981028765848       3.518199093750      53.414628000000
      3652    2        4.358263883929       3.518199093750      54.878052000000
      3653    2        5.150674591518       1.172733031250      53.414628000000
      3654    2        7.527910042412       1.172733031250      54.878052000000
      3655    2        6.735499334823       3.518199093750      53.414628000000
      3656    2        9.112731457589       3.518199093750      54.878052000000
      3657    2        9.905142165177       1.172733031250      53.414628000000
      3658    2       12.282377616071       1.172733031250      54.878052000000
      3659    2       11.489966908482       3.518199093750      53.414628000000
      3660    2       13.867202359376       3.518199093750      54.878052000000
      3661    2       14.659613066965       1.172733031250      53.414628000000
      3662    2       17.036848517858       1.172733031250      54.878052000000
      3663    2       16.244434482142       3.518199093750      53.414628000000
      3664    2       18.621669933035       3.518199093750      54.878052000000
      3665    2       19.414080640624       1.172733031250      53.414628000000
      3666    2       21.791316091518       1.172733031250      54.878052000000
      3667    2       20.998905383929       3.518199093750      53.414628000000
      3668    2       23.376140834823       3.518199093750      54.878052000000
      3669    2       24.168551542411       1.172733031250      53.414628000000
      3670    2       26.545783665177       1.172733031250      54.878052000000
      3671    2       25.753372957589       3.518199093750      53.414628000000
      3672    2       28.130608408482       3.518199093750      54.878052000000
      3673    2       28.923019116071       1.172733031250      53.414628000000
      3674    2       31.300254566965       1.172733031250      54.878052000000
      3675    2       30.507843859376       3.518199093750      53.414628000000
      3676    2       32.885075982142       3.518199093750      54.878052000000
      3677    2        0.396205686607       5.863665156250      53.414628000000
      3678    2        2.773440139062       5.863665156250      54.878052000000
      3679    2        1.981028765848       8.209131218750      53.414628000000
      3680    2        4.358263883929       8.209131218750      54.878052000000
      3681    2        5.150674591518       5.863665156250      53.414628000000
      3682    2        7.527910042412       5.863665156250      54.878052000000
      3683    2        6.735499334823       8.209131218750      53.414628000000
      3684    2        9.112731457589       8.209131218750      54.878052000000
      3685    2        9.905142165177       5.863665156250      53.414628000000
      3686    2       12.282377616071       5.863665156250      54.878052000000
      3687    2       11.489966908482       8.209131218750      53.414628000000
      3688    2       13.867202359376       8.209131218750      54.878052000000
      3689    2       14.659613066965       5.863665156250      53.414628000000
      3690    2       17.036848517858       5.863665156250      54.878052000000
      3691    2       16.244434482142       8.209131218750      53.414628000000
      3692    2       18.621669933035       8.209131218750      54.878052000000
      3693    2       19.414080640624       5.863665156250      53.414628000000
      3694    2       21.791316091518       5.863665156250      54.878052000000
      3695    2       20.998905383929       8.209131218750      53.414628000000
      3696    2       23.376140834823       8.209131218750      54.878052000000
      3697    2       24.168551542411       5.863665156250      53.414628000000
      3698    2       26.545783665177       5.863665156250      54.878052000000
      3699    2       25.753372957589       8.209131218750      53.414628000000
      3700    2       28.130608408482       8.209131218750      54.878052000000
      3701    2       28.923019116071       5.863665156250      53.414628000000
      3702    2       31.300254566965       5.863665156250      54.878052000000
      3703    2       30.507843859376       8.209131218750      53.414628000000
      3704    2       32.885075982142       8.209131218750      54.878052000000
      3705    2        0.396205686607      10.554597281250      53.414628000000
      3706    2        2.773440139062      10.554597281250      54.878052000000
      3707    2        1.981028765848      12.900063343750      53.414628000000
      3708    2        4.358263883929      12.900063343750      54.878052000000
      3709    2        5.150674591518      10.554597281250      53.414628000000
      3710    2        7.527910042412      10.554597281250      54.878052000000
      3711    2        6.735499334823      12.900063343750      53.414628000000
      3712    2        9.112731457589      12.900063343750      54.878052000000
      3713    2        9.905142165177      10.554597281250      53.414628000000
      3714    2       12.282377616071      10.554597281250      54.878052000000
      3715    2       11.489966908482      12.900063343750      53.414628000000
      3716    2       13.867202359376      12.900063343750      54.878052000000
      3717    2       14.659613066965      10.554597281250      53.414628000000
      3718    2       17.036848517858      10.554597281250      54.878052000000
      3719    2       16.244434482142      12.900063343750      53.414628000000
      3720    2       18.621669933035      12.900063343750      54.878052000000
      3721    2       19.414080640624      10.554597281250      53.414628000000
      3722    2       21.791316091518      10.554597281250      54.878052000000
      3723    2       20.998905383929      12.900063343750      53.414628000000
      3724    2       23.376140834823      12.900063343750      54.878052000000
      3725    2       24.168551542411      10.554597281250      53.414628000000
      3726    2       26.545783665177      10.554597281250      54.878052000000
      3727    2       25.753372957589      12.900063343750      53.414628000000
      3728    2       28.130608408482      12.900063343750      54.878052000000
      3729    2       28.923019116071      10.554597281250      53.414628000000
      3730    2       31.300254566965      10.554597281250      54.878052000000
      3731    2       30.507843859376      12.900063343750      53.414628000000
      3732    2       32.885075982142      12.900063343750      54.878052000000
      3733    2        0.396205686607      15.245529406250      53.414628000000
      3734    2        2.773440139062      15.245529406250      54.878052000000
      3735    2        1.981028765848      17.590995468750      53.414628000000
      3736    2        4.358263883929      17.590995468750      54.878052000000
      3737    2        5.150674591518      15.245529406250      53.414628000000
      3738    2        7.527910042412      15.245529406250      54.878052000000
      3739    2        6.735499334823      17.590995468750      53.414628000000
      3740    2        9.112731457589      17.590995468750      54.878052000000
      3741    2        9.905142165177      15.245529406250      53.414628000000
      3742    2       12.282377616071      15.245529406250      54.878052000000
      3743    2       11.489966908482      17.590995468750      53.414628000000
      3744    2       13.867202359376      17.590995468750      54.878052000000
      3745    2       14.659613066965      15.245529406250      53.414628000000
      3746    2       17.036848517858      15.245529406250      54.878052000000
      3747    2       16.244434482142      17.590995468750      53.414628000000
      3748    2       18.621669933035      17.590995468750      54.878052000000
      3749    2       19.414080640624      15.245529406250      53.414628000000
      3750    2       21.791316091518      15.245529406250      54.878052000000
      3751    2       20.998905383929      17.590995468750      53.414628000000
      3752    2       23.376140834823      17.590995468750      54.878052000000
      3753    2       24.168551542411      15.245529406250      53.414628000000
      3754    2       26.545783665177      15.245529406250      54.878052000000
      3755    2       25.753372957589      17.590995468750      53.414628000000
      3756    2       28.130608408482      17.590995468750      54.878052000000
      3757    2       28.923019116071      15.245529406250      53.414628000000
      3758    2       31.300254566965      15.245529406250      54.878052000000
      3759    2       30.507843859376      17.590995468750      53.414628000000
      3760    2       32.885075982142      17.590995468750      54.878052000000
      3761    2        0.396205686607      19.936461531250      53.414628000000
      3762    2        2.773440139062      19.936461531250      54.878052000000
      3763    2        1.981028765848      22.281927593750      53.414628000000
      3764    2        4.358263883929      22.281927593750      54.878052000000
      3765    2        5.150674591518      19.936461531250      53.414628000000
      3766    2        7.527910042412      19.936461531250      54.878052000000
      3767    2        6.735499334823      22.281927593750      53.414628000000
      3768    2        9.112731457589      22.281927593750      54.878052000000
      3769    2        9.905142165177      19.936461531250      53.414628000000
      3770    2       12.282377616071      19.936461531250      54.878052000000
      3771    2       11.489966908482      22.281927593750      53.414628000000
      3772    2       13.867202359376      22.281927593750      54.878052000000
      3773    2       14.659613066965      19.936461531250      53.414628000000
      3774    2       17.036848517858      19.936461531250      54.878052000000
      3775    2       16.244434482142      22.281927593750      53.414628000000
      3776    2       18.621669933035      22.281927593750      54.878052000000
      3777    2       19.414080640624      19.936461531250      53.414628000000
      3778    2       21.791316091518      19.936461531250      54.878052000000
      3779    2       20.998905383929      22.281927593750      53.414628000000
      3780    2       23.376140834823      22.281927593750      54.878052000000
      3781    2       24.168551542411      19.936461531250      53.414628000000
      3782    2       26.545783665177      19.936461531250      54.878052000000
      3783    2       25.753372957589      22.281927593750      53.414628000000
      3784    2       28.130608408482      22.281927593750      54.878052000000
      3785    2       28.923019116071      19.936461531250      53.414628000000
      3786    2       31.300254566965      19.936461531250      54.878052000000
      3787    2       30.507843859376      22.281927593750      53.414628000000
      3788    2       32.885075982142      22.281927593750      54.878052000000
      3789    2        0.396205686607      24.627393656250      53.414628000000
      3790    2        2.773440139062      24.627393656250      54.878052000000
      3791    2        1.981028765848      26.972859718750      53.414628000000
      3792    2        4.358263883929      26.972859718750      54.878052000000
      3793    2        5.150674591518      24.627393656250      53.414628000000
      3794    2        7.527910042412      24.627393656250      54.878052000000
      3795    2        6.735499334823      26.972859718750      53.414628000000
      3796    2        9.112731457589      26.972859718750      54.878052000000
      3797    2        9.905142165177      24.627393656250      53.414628000000
      3798    2       12.282377616071      24.627393656250      54.878052000000
      3799    2       11.489966908482      26.972859718750      53.414628000000
      3800    2       13.867202359376      26.972859718750      54.878052000000
      3801    2       14.659613066965      24.627393656250      53.414628000000
      3802    2       17.036848517858      24.627393656250      54.878052000000
      3803    2       16.244434482142      26.972859718750      53.414628000000
      3804    2       18.621669933035      26.972859718750      54.878052000000
      3805    2       19.414080640624      24.627393656250      53.414628000000
      3806    2       21.791316091518      24.627393656250      54.878052000000
      3807    2       20.998905383929      26.972859718750      53.414628000000
      3808    2       23.376140834823      26.972859718750      54.878052000000
      3809    2       24.168551542411      24.627393656250      53.414628000000
      3810    2       26.545783665177      24.627393656250      54.878052000000
      3811    2       25.753372957589      26.972859718750      53.414628000000
      3812    2       28.130608408482      26.972859718750      54.878052000000
      3813    2       28.923019116071      24.627393656250      53.414628000000
      3814    2       31.300254566965      24.627393656250      54.878052000000
      3815    2       30.507843859376      26.972859718750      53.414628000000
      3816    2       32.885075982142      26.972859718750      54.878052000000
      3817    2        0.396205686607      29.318325781250      53.414628000000
      3818    2        2.773440139062      29.318325781250      54.878052000000
      3819    2        1.981028765848      31.663791843750      53.414628000000
      3820    2        4.358263883929      31.663791843750      54.878052000000
      3821    2        5.150674591518      29.318325781250      53.414628000000
      3822    2        7.527910042412      29.318325781250      54.878052000000
      3823    2        6.735499334823      31.663791843750      53.414628000000
      3824    2        9.112731457589      31.663791843750      54.878052000000
      3825    2        9.905142165177      29.318325781250      53.414628000000
      3826    2       12.282377616071      29.318325781250      54.878052000000
      3827    2       11.489966908482      31.663791843750      53.414628000000
      3828    2       13.867202359376      31.663791843750      54.878052000000
      3829    2       14.659613066965      29.318325781250      53.414628000000
      3830    2       17.036848517858      29.318325781250      54.878052000000
      3831    2       16.244434482142      31.663791843750      53.414628000000
      3832    2       18.621669933035      31.663791843750      54.878052000000
      3833    2       19.414080640624      29.318325781250      53.414628000000
      3834    2       21.791316091518      29.318325781250      54.878052000000
      3835    2       20.998905383929      31.663791843750      53.414628000000
      3836    2       23.376140834823      31.663791843750      54.878052000000
      3837    2       24.168551542411      29.318325781250      53.414628000000
      3838    2       26.545783665177      29.318325781250      54.878052000000
      3839    2       25.753372957589      31.663791843750      53.414628000000
      3840    2       28.130608408482      31.663791843750      54.878052000000
      3841    2       28.923019116071      29.318325781250      53.414628000000
      3842    2       31.300254566965      29.318325781250      54.878052000000
      3843    2       30.507843859376      31.663791843750      53.414628000000
      3844    2       32.885075982142      31.663791843750      54.878052000000
      3845    2        0.396205686607      34.009257906250      53.414628000000
      3846    2        2.773440139062      34.009257906250      54.878052000000
      3847    2        1.981028765848      36.354723968750      53.414628000000
      3848    2        4.358263883929      36.354723968750      54.878052000000
      3849    2        5.150674591518      34.009257906250      53.414628000000
      3850    2        7.527910042412      34.009257906250      54.878052000000
      3851    2        6.735499334823      36.354723968750      53.414628000000
      3852    2        9.112731457589      36.354723968750      54.878052000000
      3853    2        9.905142165177      34.009257906250      53.414628000000
      3854    2       12.282377616071      34.009257906250      54.878052000000
      3855    2       11.489966908482      36.354723968750      53.414628000000
      3856    2       13.867202359376      36.354723968750      54.878052000000
      3857    2       14.659613066965      34.009257906250      53.414628000000
      3858    2       17.036848517858      34.009257906250      54.878052000000
      3859    2       16.244434482142      36.354723968750      53.414628000000
      3860    2       18.621669933035      36.354723968750      54.878052000000
      3861    2       19.414080640624      34.009257906250      53.414628000000
      3862    2       21.791316091518      34.009257906250      54.878052000000
      3863    2       20.998905383929      36.354723968750      53.414628000000
      3864    2       23.376140834823      36.354723968750      54.878052000000
      3865    2       24.168551542411      34.009257906250      53.414628000000
      3866    2       26.545783665177      34.009257906250      54.878052000000
      3867    2       25.753372957589      36.354723968750      53.414628000000
      3868    2       28.130608408482      36.354723968750      54.878052000000
      3869    2       28.923019116071      34.009257906250      53.414628000000
      3870    2       31.300254566965      34.009257906250      54.878052000000
      3871    2       30.507843859376      36.354723968750      53.414628000000
      3872    2       32.885075982142      36.354723968750      54.878052000000
      3873    2        0.396205686607       1.172733031250      56.341464000000
      3874    2        2.773440139062       1.172733031250      57.804876000000
      3875    2        1.981028765848       3.518199093750      56.341464000000
      3876    2        4.358263883929       3.518199093750      57.804876000000
      3877    2        5.150674591518       1.172733031250      56.341464000000
      3878    2        7.527910042412       1.172733031250      57.804876000000
      3879    2        6.735499334823       3.518199093750      56.341464000000
      3880    2        9.112731457589       3.518199093750      57.804876000000
      3881    2        9.905142165177       1.172733031250      56.341464000000
      3882    2       12.282377616071       1.172733031250      57.804876000000
      3883    2       11.489966908482       3.518199093750      56.341464000000
      3884    2       13.867202359376       3.518199093750      57.804876000000
      3885    2       14.659613066965       1.172733031250      56.341464000000
      3886    2       17.036848517858       1.172733031250      57.804876000000
      3887    2       16.244434482142       3.518199093750      56.341464000000
      3888    2       18.621669933035       3.518199093750      57.804876000000
      3889    2       19.414080640624       1.172733031250      56.341464000000
      3890    2       21.791316091518       1.172733031250      57.804876000000
      3891    2       20.998905383929       3.518199093750      56.341464000000
      3892    2       23.376140834823       3.518199093750      57.804876000000
      3893    2       24.168551542411       1.172733031250      56.341464000000
      3894    2       26.545783665177       1.172733031250      57.804876000000
      3895    2       25.753372957589       3.518199093750      56.341464000000
      3896    2       28.130608408482       3.518199093750      57.804876000000
      3897    2       28.923019116071       1.172733031250      56.341464000000
      3898    2       31.300254566965       1.172733031250      57.804876000000
      3899    2       30.507843859376       3.518199093750      56.341464000000
      3900    2       32.885075982142       3.518199093750      57.804876000000
      3901    2        0.396205686607       5.863665156250      56.341464000000
      3902    2        2.773440139062       5.863665156250      57.804876000000
      3903    2        1.981028765848       8.209131218750      56.341464000000
      3904    2        4.358263883929       8.209131218750      57.804876000000
      3905    2        5.150674591518       5.863665156250      56.341464000000
      3906    2        7.527910042412       5.863665156250      57.804876000000
      3907    2        6.735499334823       8.209131218750      56.341464000000
      3908    2        9.112731457589       8.209131218750      57.804876000000
      3909    2        9.905142165177       5.863665156250      56.341464000000
      3910    2       12.282377616071       5.863665156250      57.804876000000
      3911    2       11.489966908482       8.209131218750      56.341464000000
      3912    2       13.867202359376       8.209131218750      57.804876000000
      3913    2       14.659613066965       5.863665156250      56.341464000000
      3914    2       17.036848517858       5.863665156250      57.804876000000
      3915    2       16.244434482142       8.209131218750      56.341464000000
      3916    2       18.621669933035       8.209131218750      57.804876000000
      3917    2       19.414080640624       5.863665156250      56.341464000000
      3918    2       21.791316091518       5.863665156250      57.804876000000
      3919    2       20.998905383929       8.209131218750      56.341464000000
      3920    2       23.376140834823       8.209131218750      57.804876000000
      3921    2       24.168551542411       5.863665156250      56.341464000000
      3922    2       26.545783665177       5.863665156250      57.804876000000
      3923    2       25.753372957589       8.209131218750      56.341464000000
      3924    2       28.130608408482       8.209131218750      57.804876000000
      3925    2       28.923019116071       5.863665156250      56.341464000000
      3926    2       31.300254566965       5.863665156250      57.804876000000
      3927    2       30.507843859376       8.209131218750      56.341464000000
      3928    2       32.885075982142       8.209131218750      57.804876000000
      3929    2        0.396205686607      10.554597281250      56.341464000000
      3930    2        2.773440139062      10.554597281250      57.804876000000
      3931    2        1.981028765848      12.900063343750      56.341464000000
      3932    2        4.358263883929      12.900063343750      57.804876000000
      3933    2        5.150674591518      10.554597281250      56.341464000000
      3934    2        7.527910042412      10.554597281250      57.804876000000
      3935    2        6.735499334823      12.900063343750      56.341464000000
      3936    2        9.112731457589      12.900063343750      57.804876000000
      3937    2        9.905142165177      10.554597281250      56.341464000000
      3938    2       12.282377616071      10.554597281250      57.804876000000
      3939    2       11.489966908482      12.900063343750      56.341464000000
      3940    2       13.867202359376      12.900063343750      57.804876000000
      3941    2       14.659613066965      10.554597281250      56.341464000000
      3942    2       17.036848517858      10.554597281250      57.804876000000
      3943    2       16.244434482142      12.900063343750      56.341464000000
      3944    2       18.621669933035      12.900063343750      57.804876000000
      3945    2       19.414080640624      10.554597281250      56.341464000000
      3946    2       21.791316091518      10.554597281250      57.804876000000
      3947    2       20.998905383929      12.900063343750      56.341464000000
      3948    2       23.376140834823      12.900063343750      57.804876000000
      3949    2       24.168551542411      10.554597281250      56.341464000000
      3950    2       26.545783665177      10.554597281250      57.804876000000
      3951    2       25.753372957589      12.900063343750      56.341464000000
      3952    2       28.130608408482      12.900063343750      57.804876000000
      3953    2       28.923019116071      10.554597281250      56.341464000000
      3954    2       31.300254566965      10.554597281250      57.804876000000
      3955    2       30.507843859376      12.900063343750      56.341464000000
      3956    2       32.885075982142      12.900063343750      57.804876000000
      3957    2        0.396205686607      15.245529406250      56.341464000000
      3958    2        2.773440139062      15.245529406250      57.804876000000
      3959    2        1.981028765848      17.590995468750      56.341464000000
      3960    2        4.358263883929      17.590995468750      57.804876000000
      3961    2        5.150674591518      15.245529406250      56.341464000000
      3962    2        7.527910042412      15.245529406250      57.804876000000
      3963    2        6.735499334823      17.590995468750      56.341464000000
      3964    2        9.112731457589      17.590995468750      57.804876000000
      3965    2        9.905142165177      15.245529406250      56.341464000000
      3966    2       12.282377616071      15.245529406250      57.804876000000
      3967    2       11.489966908482      17.590995468750      56.341464000000
      3968    2       13.867202359376      17.590995468750      57.804876000000
      3969    2       14.659613066965      15.245529406250      56.341464000000
      3970    2       17.036848517858      15.245529406250      57.804876000000
      3971    2       16.244434482142      17.590995468750      56.341464000000
      3972    2       18.621669933035      17.590995468750      57.804876000000
      3973    2       19.414080640624      15.245529406250      56.341464000000
      3974    2       21.791316091518      15.245529406250      57.804876000000
      3975    2       20.998905383929      17.590995468750      56.341464000000
      3976    2       23.376140834823      17.590995468750      57.804876000000
      3977    2       24.168551542411      15.245529406250      56.341464000000
      3978    2       26.545783665177      15.245529406250      57.804876000000
      3979    2       25.753372957589      17.590995468750      56.341464000000
      3980    2       28.130608408482      17.590995468750      57.804876000000
      3981    2       28.923019116071      15.245529406250      56.341464000000
      3982    2       31.300254566965      15.245529406250      57.804876000000
      3983    2       30.507843859376      17.590995468750      56.341464000000
      3984    2       32.885075982142      17.590995468750      57.804876000000
      3985    2        0.396205686607      19.936461531250      56.341464000000
      3986    2        2.773440139062      19.936461531250      57.804876000000
      3987    2        1.981028765848      22.281927593750      56.341464000000
      3988    2        4.358263883929      22.281927593750      57.804876000000
      3989    2        5.150674591518      19.936461531250      56.341464000000
      3990    2        7.527910042412      19.936461531250      57.804876000000
      3991    2        6.735499334823      22.281927593750      56.341464000000
      3992    2        9.112731457589      22.281927593750      57.804876000000
      3993    2        9.905142165177      19.936461531250      56.341464000000
      3994    2       12.282377616071      19.936461531250      57.804876000000
      3995    2       11.489966908482      22.281927593750      56.341464000000
      3996    2       13.867202359376      22.281927593750      57.804876000000
      3997    2       14.659613066965      19.936461531250      56.341464000000
      3998    2       17.036848517858      19.936461531250      57.804876000000
      3999    2       16.244434482142      22.281927593750      56.341464000000
      4000    2       18.621669933035      22.281927593750      57.804876000000
      4001    2       19.414080640624      19.936461531250      56.341464000000
      4002    2       21.791316091518      19.936461531250      57.804876000000
      4003    2       20.998905383929      22.281927593750      56.341464000000
      4004    2       23.376140834823      22.281927593750      57.804876000000
      4005    2       24.168551542411      19.936461531250      56.341464000000
      4006    2       26.545783665177      19.936461531250      57.804876000000
      4007    2       25.753372957589      22.281927593750      56.341464000000
      4008    2       28.130608408482      22.281927593750      57.804876000000
      4009    2       28.923019116071      19.936461531250      56.341464000000
      4010    2       31.300254566965      19.936461531250      57.804876000000
      4011    2       30.507843859376      22.281927593750      56.341464000000
      4012    2       32.885075982142      22.281927593750      57.804876000000
      4013    2        0.396205686607      24.627393656250      56.341464000000
      4014    2        2.773440139062      24.627393656250      57.804876000000
      4015    2        1.981028765848      26.972859718750      56.341464000000
      4016    2        4.358263883929      26.972859718750      57.804876000000
      4017    2        5.150674591518      24.627393656250      56.341464000000
      4018    2        7.527910042412      24.627393656250      57.804876000000
      4019    2        6.735499334823      26.972859718750      56.341464000000
      4020    2        9.112731457589      26.972859718750      57.804876000000
      4021    2        9.905142165177      24.627393656250      56.341464000000
      4022    2       12.282377616071      24.627393656250      57.804876000000
      4023    2       11.489966908482      26.972859718750      56.341464000000
      4024    2       13.867202359376      26.972859718750      57.804876000000
      4025    2       14.659613066965      24.627393656250      56.341464000000
      4026    2       17.036848517858      24.627393656250      57.804876000000
      4027    2       16.244434482142      26.972859718750      56.341464000000
      4028    2       18.621669933035      26.972859718750      57.804876000000
      4029    2       19.414080640624      24.627393656250      56.341464000000
      4030    2       21.791316091518      24.627393656250      57.804876000000
      4031    2       20.998905383929      26.972859718750      56.341464000000
      4032    2       23.376140834823      26.972859718750      57.804876000000
      4033    2       24.168551542411      24.627393656250      56.341464000000
      4034    2       26.545783665177      24.627393656250      57.804876000000
      4035    2       25.753372957589      26.972859718750      56.341464000000
      4036    2       28.130608408482      26.972859718750      57.804876000000
      4037    2       28.923019116071      24.627393656250      56.341464000000
      4038    2       31.300254566965      24.627393656250      57.804876000000
      4039    2       30.507843859376      26.972859718750      56.341464000000
      4040    2       32.885075982142      26.972859718750      57.804876000000
      4041    2        0.396205686607      29.318325781250      56.341464000000
      4042    2        2.773440139062      29.318325781250      57.804876000000
      4043    2        1.981028765848      31.663791843750      56.341464000000
      4044    2        4.358263883929      31.663791843750      57.804876000000
      4045    2        5.150674591518      29.318325781250      56.341464000000
      4046    2        7.527910042412      29.318325781250      57.804876000000
      4047    2        6.735499334823      31.663791843750      56.341464000000
      4048    2        9.112731457589      31.663791843750      57.804876000000
      4049    2        9.905142165177      29.318325781250      56.341464000000
      4050    2       12.282377616071      29.318325781250      57.804876000000
      4051    2       11.489966908482      31.663791843750      56.341464000000
      4052    2       13.867202359376      31.663791843750      57.804876000000
      4053    2       14.659613066965      29.318325781250      56.341464000000
      4054    2       17.036848517858      29.318325781250      57.804876000000
      4055    2       16.244434482142      31.663791843750      56.341464000000
      4056    2       18.621669933035      31.663791843750      57.804876000000
      4057    2       19.414080640624      29.318325781250      56.341464000000
      4058    2       21.791316091518      29.318325781250      57.804876000000
      4059    2       20.998905383929      31.663791843750      56.341464000000
      4060    2       23.376140834823      31.663791843750      57.804876000000
      4061    2       24.168551542411      29.318325781250      56.341464000000
      4062    2       26.545783665177      29.318325781250      57.804876000000
      4063    2       25.753372957589      31.663791843750      56.341464000000
      4064    2       28.130608408482      31.663791843750      57.804876000000
      4065    2       28.923019116071      29.318325781250      56.341464000000
      4066    2       31.300254566965      29.318325781250      57.804876000000
      4067    2       30.507843859376      31.663791843750      56.341464000000
      4068    2       32.885075982142      31.663791843750      57.804876000000
      4069    2        0.396205686607      34.009257906250      56.341464000000
      4070    2        2.773440139062      34.009257906250      57.804876000000
      4071    2        1.981028765848      36.354723968750      56.341464000000
      4072    2        4.358263883929      36.354723968750      57.804876000000
      4073    2        5.150674591518      34.009257906250      56.341464000000
      4074    2        7.527910042412      34.009257906250      57.804876000000
      4075    2        6.735499334823      36.354723968750      56.341464000000
      4076    2        9.112731457589      36.354723968750      57.804876000000
      4077    2        9.905142165177      34.009257906250      56.341464000000
      4078    2       12.282377616071      34.009257906250      57.804876000000
      4079    2       11.489966908482      36.354723968750      56.341464000000
      4080    2       13.867202359376      36.354723968750      57.804876000000
      4081    2       14.659613066965      34.009257906250      56.341464000000
      4082    2       17.036848517858      34.009257906250      57.804876000000
      4083    2       16.244434482142      36.354723968750      56.341464000000
      4084    2       18.621669933035      36.354723968750      57.804876000000
      4085    2       19.414080640624      34.009257906250      56.341464000000
      4086    2       21.791316091518      34.009257906250      57.804876000000
      4087    2       20.998905383929      36.354723968750      56.341464000000
      4088    2       23.376140834823      36.354723968750      57.804876000000
      4089    2       24.168551542411      34.009257906250      56.341464000000
      4090    2       26.545783665177      34.009257906250      57.804876000000
      4091    2       25.753372957589      36.354723968750      56.341464000000
      4092    2       28.130608408482      36.354723968750      57.804876000000
      4093    2       28.923019116071      34.009257906250      56.341464000000
      4094    2       31.300254566965      34.009257906250      57.804876000000
      4095    2       30.507843859376      36.354723968750      56.341464000000
      4096    2       32.885075982142      36.354723968750      57.804876000000
      4097    2        0.396205686607       1.172733031250      59.268288000000
      4098    2        2.773440139062       1.172733031250      60.731712000000
      4099    2        1.981028765848       3.518199093750      59.268288000000
      4100    2        4.358263883929       3.518199093750      60.731712000000
      4101    2        5.150674591518       1.172733031250      59.268288000000
      4102    2        7.527910042412       1.172733031250      60.731712000000
      4103    2        6.735499334823       3.518199093750      59.268288000000
      4104    2        9.112731457589       3.518199093750      60.731712000000
      4105    2        9.905142165177       1.172733031250      59.268288000000
      4106    2       12.282377616071       1.172733031250      60.731712000000
      4107    2       11.489966908482       3.518199093750      59.268288000000
      4108    2       13.867202359376       3.518199093750      60.731712000000
      4109    2       14.659613066965       1.172733031250      59.268288000000
      4110    2       17.036848517858       1.172733031250      60.731712000000
      4111    2       16.244434482142       3.518199093750      59.268288000000
      4112    2       18.621669933035       3.518199093750      60.731712000000
      4113    2       19.414080640624       1.172733031250      59.268288000000
      4114    2       21.791316091518       1.172733031250      60.731712000000
      4115    2       20.998905383929       3.518199093750      59.268288000000
      4116    2       23.376140834823       3.518199093750      60.731712000000
      4117    2       24.168551542411       1.172733031250      59.268288000000
      4118    2       26.545783665177       1.172733031250      60.731712000000
      4119    2       25.753372957589       3.518199093750      59.268288000000
      4120    2       28.130608408482       3.518199093750      60.731712000000
      4121    2       28.923019116071       1.172733031250      59.268288000000
      4122    2       31.300254566965       1.172733031250      60.731712000000
      4123    2       30.507843859376       3.518199093750      59.268288000000
      4124    2       32.885075982142       3.518199093750      60.731712000000
      4125    2        0.396205686607       5.863665156250      59.268288000000
      4126    2        2.773440139062       5.863665156250      60.731712000000
      4127    2        1.981028765848       8.209131218750      59.268288000000
      4128    2        4.358263883929       8.209131218750      60.731712000000
      4129    2        5.150674591518       5.863665156250      59.268288000000
      4130    2        7.527910042412       5.863665156250      60.731712000000
      4131    2        6.735499334823       8.209131218750      59.268288000000
      4132    2        9.112731457589       8.209131218750      60.731712000000
      4133    2        9.905142165177       5.863665156250      59.268288000000
      4134    2       12.282377616071       5.863665156250      60.731712000000
      4135    2       11.489966908482       8.209131218750      59.268288000000
      4136    2       13.867202359376       8.209131218750      60.731712000000
      4137    2       14.659613066965       5.863665156250      59.268288000000
      4138    2       17.036848517858       5.863665156250      60.731712000000
      4139    2       16.244434482142       8.209131218750      59.268288000000
      4140    2       18.621669933035       8.209131218750      60.731712000000
      4141    2       19.414080640624       5.863665156250      59.268288000000
      4142    2       21.791316091518       5.863665156250      60.731712000000
      4143    2       20.998905383929       8.209131218750      59.268288000000
      4144    2       23.376140834823       8.209131218750      60.731712000000
      4145    2       24.168551542411       5.863665156250      59.268288000000
      4146    2       26.545783665177       5.863665156250      60.731712000000
      4147    2       25.753372957589       8.209131218750      59.268288000000
      4148    2       28.130608408482       8.209131218750      60.731712000000
      4149    2       28.923019116071       5.863665156250      59.268288000000
      4150    2       31.300254566965       5.863665156250      60.731712000000
      4151    2       30.507843859376       8.209131218750      59.268288000000
      4152    2       32.885075982142       8.209131218750      60.731712000000
      4153    2        0.396205686607      10.554597281250      59.268288000000
      4154    2        2.773440139062      10.554597281250      60.731712000000
      4155    2        1.981028765848      12.900063343750      59.268288000000
      4156    2        4.358263883929      12.900063343750      60.731712000000
      4157    2        5.150674591518      10.554597281250      59.268288000000
      4158    2        7.527910042412      10.554597281250      60.731712000000
      4159    2        6.735499334823      12.900063343750      59.268288000000
      4160    2        9.112731457589      12.900063343750      60.731712000000
      4161    2        9.905142165177      10.554597281250      59.268288000000
      4162    2       12.282377616071      10.554597281250      60.731712000000
      4163    2       11.489966908482      12.900063343750      59.268288000000
      4164    2       13.867202359376      12.900063343750      60.731712000000
      4165    2       14.659613066965      10.554597281250      59.268288000000
      4166    2       17.036848517858      10.554597281250      60.731712000000
      4167    2       16.244434482142      12.900063343750      59.268288000000
      4168    2       18.621669933035      12.900063343750      60.731712000000
      4169    2       19.414080640624      10.554597281250      59.268288000000
      4170    2       21.791316091518      10.554597281250      60.731712000000
      4171    2       20.998905383929      12.900063343750      59.268288000000
      4172    2       23.376140834823      12.900063343750      60.731712000000
      4173    2       24.168551542411      10.554597281250      59.268288000000
      4174    2       26.545783665177      10.554597281250      60.731712000000
      4175    2       25.753372957589      12.900063343750      59.268288000000
      4176    2       28.130608408482      12.900063343750      60.731712000000
      4177    2       28.923019116071      10.554597281250      59.268288000000
      4178    2       31.300254566965      10.554597281250      60.731712000000
      4179    2       30.507843859376      12.900063343750      59.268288000000
      4180    2       32.885075982142      12.900063343750      60.731712000000
      4181    2        0.396205686607      15.245529406250      59.268288000000
      4182    2        2.773440139062      15.245529406250      60.731712000000
      4183    2        1.981028765848      17.590995468750      59.268288000000
      4184    2        4.358263883929      17.590995468750      60.731712000000
      4185    2        5.150674591518      15.245529406250      59.268288000000
      4186    2        7.527910042412      15.245529406250      60.731712000000
      4187    2        6.735499334823      17.590995468750      59.268288000000
      4188    2        9.112731457589      17.590995468750      60.731712000000
      4189    2        9.905142165177      15.245529406250      59.268288000000
      4190    2       12.282377616071      15.245529406250      60.731712000000
      4191    2       11.489966908482      17.590995468750      59.268288000000
      4192    2       13.867202359376      17.590995468750      60.731712000000
      4193    2       14.659613066965      15.245529406250      59.268288000000
      4194    2       17.036848517858      15.245529406250      60.731712000000
      4195    2       16.244434482142      17.590995468750      59.268288000000
      4196    2       18.621669933035      17.590995468750      60.731712000000
      4197    2       19.414080640624      15.245529406250      59.268288000000
      4198    2       21.791316091518      15.245529406250      60.731712000000
      4199    2       20.998905383929      17.590995468750      59.268288000000
      4200    2       23.376140834823      17.590995468750      60.731712000000
      4201    2       24.168551542411      15.245529406250      59.268288000000
      4202    2       26.545783665177      15.245529406250      60.731712000000
      4203    2       25.753372957589      17.590995468750      59.268288000000
      4204    2       28.130608408482      17.590995468750      60.731712000000
      4205    2       28.923019116071      15.245529406250      59.268288000000
      4206    2       31.300254566965      15.245529406250      60.731712000000
      4207    2       30.507843859376      17.590995468750      59.268288000000
      4208    2       32.885075982142      17.590995468750      60.731712000000
      4209    2        0.396205686607      19.936461531250      59.268288000000
      4210    2        2.773440139062      19.936461531250      60.731712000000
      4211    2        1.981028765848      22.281927593750      59.268288000000
      4212    2        4.358263883929      22.281927593750      60.731712000000
      4213    2        5.150674591518      19.936461531250      59.268288000000
      4214    2        7.527910042412      19.936461531250      60.731712000000
      4215    2        6.735499334823      22.281927593750      59.268288000000
      4216    2        9.112731457589      22.281927593750      60.731712000000
      4217    2        9.905142165177      19.936461531250      59.268288000000
      4218    2       12.282377616071      19.936461531250      60.731712000000
      4219    2       11.489966908482      22.281927593750      59.268288000000
      4220    2       13.867202359376      22.281927593750      60.731712000000
      4221    2       14.659613066965      19.936461531250      59.268288000000
      4222    2       17.036848517858      19.936461531250      60.731712000000
      4223    2       16.244434482142      22.281927593750      59.268288000000
      4224    2       18.621669933035      22.281927593750      60.731712000000
      4225    2       19.414080640624      19.936461531250      59.268288000000
      4226    2       21.791316091518      19.936461531250      60.731712000000
      4227    2       20.998905383929      22.281927593750      59.268288000000
      4228    2       23.376140834823      22.281927593750      60.731712000000
      4229    2       24.168551542411      19.936461531250      59.268288000000
      4230    2       26.545783665177      19.936461531250      60.731712000000
      4231    2       25.753372957589      22.281927593750      59.268288000000
      4232    2       28.130608408482      22.281927593750      60.731712000000
      4233    2       28.923019116071      19.936461531250      59.268288000000
      4234    2       31.300254566965      19.936461531250      60.731712000000
      4235    2       30.507843859376      22.281927593750      59.268288000000
      4236    2       32.885075982142      22.281927593750      60.731712000000
      4237    2        0.396205686607      24.627393656250      59.268288000000
      4238    2        2.773440139062      24.627393656250      60.731712000000
      4239    2        1.981028765848      26.972859718750      59.268288000000
      4240    2        4.358263883929      26.972859718750      60.731712000000
      4241    2        5.150674591518      24.627393656250      59.268288000000
      4242    2        7.527910042412      24.627393656250      60.731712000000
      4243    2        6.735499334823      26.972859718750      59.268288000000
      4244    2        9.112731457589      26.972859718750      60.731712000000
      4245    2        9.905142165177      24.627393656250      59.268288000000
      4246    2       12.282377616071      24.627393656250      60.731712000000
      4247    2       11.489966908482      26.972859718750      59.268288000000
      4248    2       13.867202359376      26.972859718750      60.731712000000
      4249    2       14.659613066965      24.627393656250      59.268288000000
      4250    2       17.036848517858      24.627393656250      60.731712000000
      4251    2       16.244434482142      26.972859718750      59.268288000000
      4252    2       18.621669933035      26.972859718750      60.731712000000
      4253    2       19.414080640624      24.627393656250      59.268288000000
      4254    2       21.791316091518      24.627393656250      60.731712000000
      4255    2       20.998905383929      26.972859718750      59.268288000000
      4256    2       23.376140834823      26.972859718750      60.731712000000
      4257    2       24.168551542411      24.627393656250      59.268288000000
      4258    2       26.545783665177      24.627393656250      60.731712000000
      4259    2       25.753372957589      26.972859718750      59.268288000000
      4260    2       28.130608408482      26.972859718750      60.731712000000
      4261    2       28.923019116071      24.627393656250      59.268288000000
      4262    2       31.300254566965      24.627393656250      60.731712000000
      4263    2       30.507843859376      26.972859718750      59.268288000000
      4264    2       32.885075982142      26.972859718750      60.731712000000
      4265    2        0.396205686607      29.318325781250      59.268288000000
      4266    2        2.773440139062      29.318325781250      60.731712000000
      4267    2        1.981028765848      31.663791843750      59.268288000000
      4268    2        4.358263883929      31.663791843750      60.731712000000
      4269    2        5.150674591518      29.318325781250      59.268288000000
      4270    2        7.527910042412      29.318325781250      60.731712000000
      4271    2        6.735499334823      31.663791843750      59.268288000000
      4272    2        9.112731457589      31.663791843750      60.731712000000
      4273    2        9.905142165177      29.318325781250      59.268288000000
      4274    2       12.282377616071      29.318325781250      60.731712000000
      4275    2       11.489966908482      31.663791843750      59.268288000000
      4276    2       13.867202359376      31.663791843750      60.731712000000
      4277    2       14.659613066965      29.318325781250      59.268288000000
      4278    2       17.036848517858      29.318325781250      60.731712000000
      4279    2       16.244434482142      31.663791843750      59.268288000000
      4280    2       18.621669933035      31.663791843750      60.731712000000
      4281    2       19.414080640624      29.318325781250      59.268288000000
      4282    2       21.791316091518      29.318325781250      60.731712000000
      4283    2       20.998905383929      31.663791843750      59.268288000000
      4284    2       23.376140834823      31.663791843750      60.731712000000
      4285    2       24.168551542411      29.318325781250      59.268288000000
      4286    2       26.545783665177      29.318325781250      60.731712000000
      4287    2       25.753372957589      31.663791843750      59.268288000000
      4288    2       28.130608408482      31.663791843750      60.731712000000
      4289    2       28.923019116071      29.318325781250      59.268288000000
      4290    2       31.300254566965      29.318325781250      60.731712000000
      4291    2       30.507843859376      31.663791843750      59.268288000000
      4292    2       32.885075982142      31.663791843750      60.731712000000
      4293    2        0.396205686607      34.009257906250      59.268288000000
      4294    2        2.773440139062      34.009257906250      60.731712000000
      4295    2        1.981028765848      36.354723968750      59.268288000000
      4296    2        4.358263883929      36.354723968750      60.731712000000
      4297    2        5.150674591518      34.009257906250      59.268288000000
      4298    2        7.527910042412      34.009257906250      60.731712000000
      4299    2        6.735499334823      36.354723968750      59.268288000000
      4300    2        9.112731457589      36.354723968750      60.731712000000
      4301    2        9.905142165177      34.009257906250      59.268288000000
      4302    2       12.282377616071      34.009257906250      60.731712000000
      4303    2       11.489966908482      36.354723968750      59.268288000000
      4304    2       13.867202359376      36.354723968750      60.731712000000
      4305    2       14.659613066965      34.009257906250      59.268288000000
      4306    2       17.036848517858      34.009257906250      60.731712000000
      4307    2       16.244434482142      36.354723968750      59.268288000000
      4308    2       18.621669933035      36.354723968750      60.731712000000
      4309    2       19.414080640624      34.009257906250      59.268288000000
      4310    2       21.791316091518      34.009257906250      60.731712000000
      4311    2       20.998905383929      36.354723968750      59.268288000000
      4312    2       23.376140834823      36.354723968750      60.731712000000
      4313    2       24.168551542411      34.009257906250      59.268288000000
      4314    2       26.545783665177      34.009257906250      60.731712000000
      4315    2       25.753372957589      36.354723968750      59.268288000000
      4316    2       28.130608408482      36.354723968750      60.731712000000
      4317    2       28.923019116071      34.009257906250      59.268288000000
      4318    2       31.300254566965      34.009257906250      60.731712000000
      4319    2       30.507843859376      36.354723968750      59.268288000000
      4320    2       32.885075982142      36.354723968750      60.731712000000
      4321    2        0.396205686607       1.172733031250      62.195124000000
      4322    2        2.773440139062       1.172733031250      63.658536000000
      4323    2        1.981028765848       3.518199093750      62.195124000000
      4324    2        4.358263883929       3.518199093750      63.658536000000
      4325    2        5.150674591518       1.172733031250      62.195124000000
      4326    2        7.527910042412       1.172733031250      63.658536000000
      4327    2        6.735499334823       3.518199093750      62.195124000000
      4328    2        9.112731457589       3.518199093750      63.658536000000
      4329    2        9.905142165177       1.172733031250      62.195124000000
      4330    2       12.282377616071       1.172733031250      63.658536000000
      4331    2       11.489966908482       3.518199093750      62.195124000000
      4332    2       13.867202359376       3.518199093750      63.658536000000
      4333    2       14.659613066965       1.172733031250      62.195124000000
      4334    2       17.036848517858       1.172733031250      63.658536000000
      4335    2       16.244434482142       3.518199093750      62.195124000000
      4336    2       18.621669933035       3.518199093750      63.658536000000
      4337    2       19.414080640624       1.172733031250      62.195124000000
      4338    2       21.791316091518       1.172733031250      63.658536000000
      4339    2       20.998905383929       3.518199093750      62.195124000000
      4340    2       23.376140834823       3.518199093750      63.658536000000
      4341    2       24.168551542411       1.172733031250      62.195124000000
      4342    2       26.545783665177       1.172733031250      63.658536000000
      4343    2       25.753372957589       3.518199093750      62.195124000000
      4344    2       28.130608408482       3.518199093750      63.658536000000
      4345    2       28.923019116071       1.172733031250      62.195124000000
      4346    2       31.300254566965       1.172733031250      63.658536000000
      4347    2       30.507843859376       3.518199093750      62.195124000000
      4348    2       32.885075982142       3.518199093750      63.658536000000
      4349    2        0.396205686607       5.863665156250      62.195124000000
      4350    2        2.773440139062       5.863665156250      63.658536000000
      4351    2        1.981028765848       8.209131218750      62.195124000000
      4352    2        4.358263883929       8.209131218750      63.658536000000
      4353    2        5.150674591518       5.863665156250      62.195124000000
      4354    2        7.527910042412       5.863665156250      63.658536000000
      4355    2        6.735499334823       8.209131218750      62.195124000000
      4356    2        9.112731457589       8.209131218750      63.658536000000
      4357    2        9.905142165177       5.863665156250      62.195124000000
      4358    2       12.282377616071       5.863665156250      63.658536000000
      4359    2       11.489966908482       8.209131218750      62.195124000000
      4360    2       13.867202359376       8.209131218750      63.658536000000
      4361    2       14.659613066965       5.863665156250      62.195124000000
      4362    2       17.036848517858       5.863665156250      63.658536000000
      4363    2       16.244434482142       8.209131218750      62.195124000000
      4364    2       18.621669933035       8.209131218750      63.658536000000
      4365    2       19.414080640624       5.863665156250      62.195124000000
      4366    2       21.791316091518       5.863665156250      63.658536000000
      4367    2       20.998905383929       8.209131218750      62.195124000000
      4368    2       23.376140834823       8.209131218750      63.658536000000
      4369    2       24.168551542411       5.863665156250      62.195124000000
      4370    2       26.545783665177       5.863665156250      63.658536000000
      4371    2       25.753372957589       8.209131218750      62.195124000000
      4372    2       28.130608408482       8.209131218750      63.658536000000
      4373    2       28.923019116071       5.863665156250      62.195124000000
      4374    2       31.300254566965       5.863665156250      63.658536000000
      4375    2       30.507843859376       8.209131218750      62.195124000000
      4376    2       32.885075982142       8.209131218750      63.658536000000
      4377    2        0.396205686607      10.554597281250      62.195124000000
      4378    2        2.773440139062      10.554597281250      63.658536000000
      4379    2        1.981028765848      12.900063343750      62.195124000000
      4380    2        4.358263883929      12.900063343750      63.658536000000
      4381    2        5.150674591518      10.554597281250      62.195124000000
      4382    2        7.527910042412      10.554597281250      63.658536000000
      4383    2        6.735499334823      12.900063343750      62.195124000000
      4384    2        9.112731457589      12.900063343750      63.658536000000
      4385    2        9.905142165177      10.554597281250      62.195124000000
      4386    2       12.282377616071      10.554597281250      63.658536000000
      4387    2       11.489966908482      12.900063343750      62.195124000000
      4388    2       13.867202359376      12.900063343750      63.658536000000
      4389    2       14.659613066965      10.554597281250      62.195124000000
      4390    2       17.036848517858      10.554597281250      63.658536000000
      4391    2       16.244434482142      12.900063343750      62.195124000000
      4392    2       18.621669933035      12.900063343750      63.658536000000
      4393    2       19.414080640624      10.554597281250      62.195124000000
      4394    2       21.791316091518      10.554597281250      63.658536000000
      4395    2       20.998905383929      12.900063343750      62.195124000000
      4396    2       23.376140834823      12.900063343750      63.658536000000
      4397    2       24.168551542411      10.554597281250      62.195124000000
      4398    2       26.545783665177      10.554597281250      63.658536000000
      4399    2       25.753372957589      12.900063343750      62.195124000000
      4400    2       28.130608408482      12.900063343750      63.658536000000
      4401    2       28.923019116071      10.554597281250      62.195124000000
      4402    2       31.300254566965      10.554597281250      63.658536000000
      4403    2       30.507843859376      12.900063343750      62.195124000000
      4404    2       32.885075982142      12.900063343750      63.658536000000
      4405    2        0.396205686607      15.245529406250      62.195124000000
      4406    2        2.773440139062      15.245529406250      63.658536000000
      4407    2        1.981028765848      17.590995468750      62.195124000000
      4408    2        4.358263883929      17.590995468750      63.658536000000
      4409    2        5.150674591518      15.245529406250      62.195124000000
      4410    2        7.527910042412      15.245529406250      63.658536000000
      4411    2        6.735499334823      17.590995468750      62.195124000000
      4412    2        9.112731457589      17.590995468750      63.658536000000
      4413    2        9.905142165177      15.245529406250      62.195124000000
      4414    2       12.282377616071      15.245529406250      63.658536000000
      4415    2       11.489966908482      17.590995468750      62.195124000000
      4416    2       13.867202359376      17.590995468750      63.658536000000
      4417    2       14.659613066965      15.245529406250      62.195124000000
      4418    2       17.036848517858      15.245529406250      63.658536000000
      4419    2       16.244434482142      17.590995468750      62.195124000000
      4420    2       18.621669933035      17.590995468750      63.658536000000
      4421    2       19.414080640624      15.245529406250      62.195124000000
      4422    2       21.791316091518      15.245529406250      63.658536000000
      4423    2       20.998905383929      17.590995468750      62.195124000000
      4424    2       23.376140834823      17.590995468750      63.658536000000
      4425    2       24.168551542411      15.245529406250      62.195124000000
      4426    2       26.545783665177      15.245529406250      63.658536000000
      4427    2       25.753372957589      17.590995468750      62.195124000000
      4428    2       28.130608408482      17.590995468750      63.658536000000
      4429    2       28.923019116071      15.245529406250      62.195124000000
      4430    2       31.300254566965      15.245529406250      63.658536000000
      4431    2       30.507843859376      17.590995468750      62.195124000000
      4432    2       32.885075982142      17.590995468750      63.658536000000
      4433    2        0.396205686607      19.936461531250      62.195124000000
      4434    2        2.773440139062      19.936461531250      63.658536000000
      4435    2        1.981028765848      22.281927593750      62.195124000000
      4436    2        4.358263883929      22.281927593750      63.658536000000
      4437    2        5.150674591518      19.936461531250      62.195124000000
      4438    2        7.527910042412      19.936461531250      63.658536000000
      4439    2        6.735499334823      22.281927593750      62.195124000000
      4440    2        9.112731457589      22.281927593750      63.658536000000
      4441    2        9.905142165177      19.936461531250      62.195124000000
      4442    2       12.282377616071      19.936461531250      63.658536000000
      4443    2       11.489966908482      22.281927593750      62.195124000000
      4444    2       13.867202359376      22.281927593750      63.658536000000
      4445    2       14.659613066965      19.936461531250      62.195124000000
      4446    2       17.036848517858      19.936461531250      63.658536000000
      4447    2       16.244434482142      22.281927593750      62.195124000000
      4448    2       18.621669933035      22.281927593750      63.658536000000
      4449    2       19.414080640624      19.936461531250      62.195124000000
      4450    2       21.791316091518      19.936461531250      63.658536000000
      4451    2       20.998905383929      22.281927593750      62.195124000000
      4452    2       23.376140834823      22.281927593750      63.658536000000
      4453    2       24.168551542411      19.936461531250      62.195124000000
      4454    2       26.545783665177      19.936461531250      63.658536000000
      4455    2       25.753372957589      22.281927593750      62.195124000000
      4456    2       28.130608408482      22.281927593750      63.658536000000
      4457    2       28.923019116071      19.936461531250      62.195124000000
      4458    2       31.300254566965      19.936461531250      63.658536000000
      4459    2       30.507843859376      22.281927593750      62.195124000000
      4460    2       32.885075982142      22.281927593750      63.658536000000
      4461    2        0.396205686607      24.627393656250      62.195124000000
      4462    2        2.773440139062      24.627393656250      63.658536000000
      4463    2        1.981028765848      26.972859718750      62.195124000000
      4464    2        4.358263883929      26.972859718750      63.658536000000
      4465    2        5.150674591518      24.627393656250      62.195124000000
      4466    2        7.527910042412      24.627393656250      63.658536000000
      4467    2        6.735499334823      26.972859718750      62.195124000000
      4468    2        9.112731457589      26.972859718750      63.658536000000
      4469    2        9.905142165177      24.627393656250      62.195124000000
      4470    2       12.282377616071      24.627393656250      63.658536000000
      4471    2       11.489966908482      26.972859718750      62.195124000000
      4472    2       13.867202359376      26.972859718750      63.658536000000
      4473    2       14.659613066965      24.627393656250      62.195124000000
      4474    2       17.036848517858      24.627393656250      63.658536000000
      4475    2       16.244434482142      26.972859718750      62.195124000000
      4476    2       18.621669933035      26.972859718750      63.658536000000
      4477    2       19.414080640624      24.627393656250      62.195124000000
      4478    2       21.791316091518      24.627393656250      63.658536000000
      4479    2       20.998905383929      26.972859718750      62.195124000000
      4480    2       23.376140834823      26.972859718750      63.658536000000
      4481    2       24.168551542411      24.627393656250      62.195124000000
      4482    2       26.545783665177      24.627393656250      63.658536000000
      4483    2       25.753372957589      26.972859718750      62.195124000000
      4484    2       28.130608408482      26.972859718750      63.658536000000
      4485    2       28.923019116071      24.627393656250      62.195124000000
      4486    2       31.300254566965      24.627393656250      63.658536000000
      4487    2       30.507843859376      26.972859718750      62.195124000000
      4488    2       32.885075982142      26.972859718750      63.658536000000
      4489    2        0.396205686607      29.318325781250      62.195124000000
      4490    2        2.773440139062      29.318325781250      63.658536000000
      4491    2        1.981028765848      31.663791843750      62.195124000000
      4492    2        4.358263883929      31.663791843750      63.658536000000
      4493    2        5.150674591518      29.318325781250      62.195124000000
      4494    2        7.527910042412      29.318325781250      63.658536000000
      4495    2        6.735499334823      31.663791843750      62.195124000000
      4496    2        9.112731457589      31.663791843750      63.658536000000
      4497    2        9.905142165177      29.318325781250      62.195124000000
      4498    2       12.282377616071      29.318325781250      63.658536000000
      4499    2       11.489966908482      31.663791843750      62.195124000000
      4500    2       13.867202359376      31.663791843750      63.658536000000
      4501    2       14.659613066965      29.318325781250      62.195124000000
      4502    2       17.036848517858      29.318325781250      63.658536000000
      4503    2       16.244434482142      31.663791843750      62.195124000000
      4504    2       18.621669933035      31.663791843750      63.658536000000
      4505    2       19.414080640624      29.318325781250      62.195124000000
      4506    2       21.791316091518      29.318325781250      63.658536000000
      4507    2       20.998905383929      31.663791843750      62.195124000000
      4508    2       23.376140834823      31.663791843750      63.658536000000
      4509    2       24.168551542411      29.318325781250      62.195124000000
      4510    2       26.545783665177      29.318325781250      63.658536000000
      4511    2       25.753372957589      31.663791843750      62.195124000000
      4512    2       28.130608408482      31.663791843750      63.658536000000
      4513    2       28.923019116071      29.318325781250      62.195124000000
      4514    2       31.300254566965      29.318325781250      63.658536000000
      4515    2       30.507843859376      31.663791843750      62.195124000000
      4516    2       32.885075982142      31.663791843750      63.658536000000
      4517    2        0.396205686607      34.009257906250      62.195124000000
      4518    2        2.773440139062      34.009257906250      63.658536000000
      4519    2        1.981028765848      36.354723968750      62.195124000000
      4520    2        4.358263883929      36.354723968750      63.658536000000
      4521    2        5.150674591518      34.009257906250      62.195124000000
      4522    2        7.527910042412      34.009257906250      63.658536000000
      4523    2        6.735499334823      36.354723968750      62.195124000000
      4524    2        9.112731457589      36.354723968750      63.658536000000
      4525    2        9.905142165177      34.009257906250      62.195124000000
      4526    2       12.282377616071      34.009257906250      63.658536000000
      4527    2       11.489966908482      36.354723968750      62.195124000000
      4528    2       13.867202359376      36.354723968750      63.658536000000
      4529    2       14.659613066965      34.009257906250      62.195124000000
      4530    2       17.036848517858      34.009257906250      63.658536000000
      4531    2       16.244434482142      36.354723968750      62.195124000000
      4532    2       18.621669933035      36.354723968750      63.658536000000
      4533    2       19.414080640624      34.009257906250      62.195124000000
      4534    2       21.791316091518      34.009257906250      63.658536000000
      4535    2       20.998905383929      36.354723968750      62.195124000000
      4536    2       23.376140834823      36.354723968750      63.658536000000
      4537    2       24.168551542411      34.009257906250      62.195124000000
      4538    2       26.545783665177      34.009257906250      63.658536000000
      4539    2       25.753372957589      36.354723968750      62.195124000000
      4540    2       28.130608408482      36.354723968750      63.658536000000
      4541    2       28.923019116071      34.009257906250      62.195124000000
      4542    2       31.300254566965      34.009257906250      63.658536000000
      4543    2       30.507843859376      36.354723968750      62.195124000000
      4544    2       32.885075982142      36.354723968750      63.658536000000
      4545    2        0.396205686607       1.172733031250      65.121948000000
      4546    2        2.773440139062       1.172733031250      66.585360000000
      4547    2        1.981028765848       3.518199093750      65.121948000000
      4548    2        4.358263883929       3.518199093750      66.585360000000
      4549    2        5.150674591518       1.172733031250      65.121948000000
      4550    2        7.527910042412       1.172733031250      66.585360000000
      4551    2        6.735499334823       3.518199093750      65.121948000000
      4552    2        9.112731457589       3.518199093750      66.585360000000
      4553    2        9.905142165177       1.172733031250      65.121948000000
      4554    2       12.282377616071       1.172733031250      66.585360000000
      4555    2       11.489966908482       3.518199093750      65.121948000000
      4556    2       13.867202359376       3.518199093750      66.585360000000
      4557    2       14.659613066965       1.172733031250      65.121948000000
      4558    2       17.036848517858       1.172733031250      66.585360000000
      4559    2       16.244434482142       3.518199093750      65.121948000000
      4560    2       18.621669933035       3.518199093750      66.585360000000
      4561    2       19.414080640624       1.172733031250      65.121948000000
      4562    2       21.791316091518       1.172733031250      66.585360000000
      4563    2       20.998905383929       3.518199093750      65.121948000000
      4564    2       23.376140834823       3.518199093750      66.585360000000
      4565    2       24.168551542411       1.172733031250      65.121948000000
      4566    2       26.545783665177       1.172733031250      66.585360000000
      4567    2       25.753372957589       3.518199093750      65.121948000000
      4568    2       28.130608408482       3.518199093750      66.585360000000
      4569    2       28.923019116071       1.172733031250      65.121948000000
      4570    2       31.300254566965       1.172733031250      66.585360000000
      4571    2       30.507843859376       3.518199093750      65.121948000000
      4572    2       32.885075982142       3.518199093750      66.585360000000
      4573    2        0.396205686607       5.863665156250      65.121948000000
      4574    2        2.773440139062       5.863665156250      66.585360000000
      4575    2        1.981028765848       8.209131218750      65.121948000000
      4576    2        4.358263883929       8.209131218750      66.585360000000
      4577    2        5.150674591518       5.863665156250      65.121948000000
      4578    2        7.527910042412       5.863665156250      66.585360000000
      4579    2        6.735499334823       8.209131218750      65.121948000000
      4580    2        9.112731457589       8.209131218750      66.585360000000
      4581    2        9.905142165177       5.863665156250      65.121948000000
      4582    2       12.282377616071       5.863665156250      66.585360000000
      4583    2       11.489966908482       8.209131218750      65.121948000000
      4584    2       13.867202359376       8.209131218750      66.585360000000
      4585    2       14.659613066965       5.863665156250      65.121948000000
      4586    2       17.036848517858       5.863665156250      66.585360000000
      4587    2       16.244434482142       8.209131218750      65.121948000000
      4588    2       18.621669933035       8.209131218750      66.585360000000
      4589    2       19.414080640624       5.863665156250      65.121948000000
      4590    2       21.791316091518       5.863665156250      66.585360000000
      4591    2       20.998905383929       8.209131218750      65.121948000000
      4592    2       23.376140834823       8.209131218750      66.585360000000
      4593    2       24.168551542411       5.863665156250      65.121948000000
      4594    2       26.545783665177       5.863665156250      66.585360000000
      4595    2       25.753372957589       8.209131218750      65.121948000000
      4596    2       28.130608408482       8.209131218750      66.585360000000
      4597    2       28.923019116071       5.863665156250      65.121948000000
      4598    2       31.300254566965       5.863665156250      66.585360000000
      4599    2       30.507843859376       8.209131218750      65.121948000000
      4600    2       32.885075982142       8.209131218750      66.585360000000
      4601    2        0.396205686607      10.554597281250      65.121948000000
      4602    2        2.773440139062      10.554597281250      66.585360000000
      4603    2        1.981028765848      12.900063343750      65.121948000000
      4604    2        4.358263883929      12.900063343750      66.585360000000
      4605    2        5.150674591518      10.554597281250      65.121948000000
      4606    2        7.527910042412      10.554597281250      66.585360000000
      4607    2        6.735499334823      12.900063343750      65.121948000000
      4608    2        9.112731457589      12.900063343750      66.585360000000
      4609    2        9.905142165177      10.554597281250      65.121948000000
      4610    2       12.282377616071      10.554597281250      66.585360000000
      4611    2       11.489966908482      12.900063343750      65.121948000000
      4612    2       13.867202359376      12.900063343750      66.585360000000
      4613    2       14.659613066965      10.554597281250      65.121948000000
      4614    2       17.036848517858      10.554597281250      66.585360000000
      4615    2       16.244434482142      12.900063343750      65.121948000000
      4616    2       18.621669933035      12.900063343750      66.585360000000
      4617    2       19.414080640624      10.554597281250      65.121948000000
      4618    2       21.791316091518      10.554597281250      66.585360000000
      4619    2       20.998905383929      12.900063343750      65.121948000000
      4620    2       23.376140834823      12.900063343750      66.585360000000
      4621    2       24.168551542411      10.554597281250      65.121948000000
      4622    2       26.545783665177      10.554597281250      66.585360000000
      4623    2       25.753372957589      12.900063343750      65.121948000000
      4624    2       28.130608408482      12.900063343750      66.585360000000
      4625    2       28.923019116071      10.554597281250      65.121948000000
      4626    2       31.300254566965      10.554597281250      66.585360000000
      4627    2       30.507843859376      12.900063343750      65.121948000000
      4628    2       32.885075982142      12.900063343750      66.585360000000
      4629    2        0.396205686607      15.245529406250      65.121948000000
      4630    2        2.773440139062      15.245529406250      66.585360000000
      4631    2        1.981028765848      17.590995468750      65.121948000000
      4632    2        4.358263883929      17.590995468750      66.585360000000
      4633    2        5.150674591518      15.245529406250      65.121948000000
      4634    2        7.527910042412      15.245529406250      66.585360000000
      4635    2        6.735499334823      17.590995468750      65.121948000000
      4636    2        9.112731457589      17.590995468750      66.585360000000
      4637    2        9.905142165177      15.245529406250      65.121948000000
      4638    2       12.282377616071      15.245529406250      66.585360000000
      4639    2       11.489966908482      17.590995468750      65.121948000000
      4640    2       13.867202359376      17.590995468750      66.585360000000
      4641    2       14.659613066965      15.245529406250      65.121948000000
      4642    2       17.036848517858      15.245529406250      66.585360000000
      4643    2       16.244434482142      17.590995468750      65.121948000000
      4644    2       18.621669933035      17.590995468750      66.585360000000
      4645    2       19.414080640624      15.245529406250      65.121948000000
      4646    2       21.791316091518      15.245529406250      66.585360000000
      4647    2       20.998905383929      17.590995468750      65.121948000000
      4648    2       23.376140834823      17.590995468750      66.585360000000
      4649    2       24.168551542411      15.245529406250      65.121948000000
      4650    2       26.545783665177      15.245529406250      66.585360000000
      4651    2       25.753372957589      17.590995468750      65.121948000000
      4652    2       28.130608408482      17.590995468750      66.585360000000
      4653    2       28.923019116071      15.245529406250      65.121948000000
      4654    2       31.300254566965      15.245529406250      66.585360000000
      4655    2       30.507843859376      17.590995468750      65.121948000000
      4656    2       32.885075982142      17.590995468750      66.585360000000
      4657    2        0.396205686607      19.936461531250      65.121948000000
      4658    2        2.773440139062      19.936461531250      66.585360000000
      4659    2        1.981028765848      22.281927593750      65.121948000000
      4660    2        4.358263883929      22.281927593750      66.585360000000
      4661    2        5.150674591518      19.936461531250      65.121948000000
      4662    2        7.527910042412      19.936461531250      66.585360000000
      4663    2        6.735499334823      22.281927593750      65.121948000000
      4664    2        9.112731457589      22.281927593750      66.585360000000
      4665    2        9.905142165177      19.936461531250      65.121948000000
      4666    2       12.282377616071      19.936461531250      66.585360000000
      4667    2       11.489966908482      22.281927593750      65.121948000000
      4668    2       13.867202359376      22.281927593750      66.585360000000
      4669    2       14.659613066965      19.936461531250      65.121948000000
      4670    2       17.036848517858      19.936461531250      66.585360000000
      4671    2       16.244434482142      22.281927593750      65.121948000000
      4672    2       18.621669933035      22.281927593750      66.585360000000
      4673    2       19.414080640624      19.936461531250      65.121948000000
      4674    2       21.791316091518      19.936461531250      66.585360000000
      4675    2       20.998905383929      22.281927593750      65.121948000000
      4676    2       23.376140834823      22.281927593750      66.585360000000
      4677    2       24.168551542411      19.936461531250      65.121948000000
      4678    2       26.545783665177      19.936461531250      66.585360000000
      4679    2       25.753372957589      22.281927593750      65.121948000000
      4680    2       28.130608408482      22.281927593750      66.585360000000
      4681    2       28.923019116071      19.936461531250      65.121948000000
      4682    2       31.300254566965      19.936461531250      66.585360000000
      4683    2       30.507843859376      22.281927593750      65.121948000000
      4684    2       32.885075982142      22.281927593750      66.585360000000
      4685    2        0.396205686607      24.627393656250      65.121948000000
      4686    2        2.773440139062      24.627393656250      66.585360000000
      4687    2        1.981028765848      26.972859718750      65.121948000000
      4688    2        4.358263883929      26.972859718750      66.585360000000
      4689    2        5.150674591518      24.627393656250      65.121948000000
      4690    2        7.527910042412      24.627393656250      66.585360000000
      4691    2        6.735499334823      26.972859718750      65.121948000000
      4692    2        9.112731457589      26.972859718750      66.585360000000
      4693    2        9.905142165177      24.627393656250      65.121948000000
      4694    2       12.282377616071      24.627393656250      66.585360000000
      4695    2       11.489966908482      26.972859718750      65.121948000000
      4696    2       13.867202359376      26.972859718750      66.585360000000
      4697    2       14.659613066965      24.627393656250      65.121948000000
      4698    2       17.036848517858      24.627393656250      66.585360000000
      4699    2       16.244434482142      26.972859718750      65.121948000000
      4700    2       18.621669933035      26.972859718750      66.585360000000
      4701    2       19.414080640624      24.627393656250      65.121948000000
      4702    2       21.791316091518      24.627393656250      66.585360000000
      4703    2       20.998905383929      26.972859718750      65.121948000000
      4704    2       23.376140834823      26.972859718750      66.585360000000
      4705    2       24.168551542411      24.627393656250      65.121948000000
      4706    2       26.545783665177      24.627393656250      66.585360000000
      4707    2       25.753372957589      26.972859718750      65.121948000000
      4708    2       28.130608408482      26.972859718750      66.585360000000
      4709    2       28.923019116071      24.627393656250      65.121948000000
      4710    2       31.300254566965      24.627393656250      66.585360000000
      4711    2       30.507843859376      26.972859718750      65.121948000000
      4712    2       32.885075982142      26.972859718750      66.585360000000
      4713    2        0.396205686607      29.318325781250      65.121948000000
      4714    2        2.773440139062      29.318325781250      66.585360000000
      4715    2        1.981028765848      31.663791843750      65.121948000000
      4716    2        4.358263883929      31.663791843750      66.585360000000
      4717    2        5.150674591518      29.318325781250      65.121948000000
      4718    2        7.527910042412      29.318325781250      66.585360000000
      4719    2        6.735499334823      31.663791843750      65.121948000000
      4720    2        9.112731457589      31.663791843750      66.585360000000
      4721    2        9.905142165177      29.318325781250      65.121948000000
      4722    2       12.282377616071      29.318325781250      66.585360000000
      4723    2       11.489966908482      31.663791843750      65.121948000000
      4724    2       13.867202359376      31.663791843750      66.585360000000
      4725    2       14.659613066965      29.318325781250      65.121948000000
      4726    2       17.036848517858      29.318325781250      66.585360000000
      4727    2       16.244434482142      31.663791843750      65.121948000000
      4728    2       18.621669933035      31.663791843750      66.585360000000
      4729    2       19.414080640624      29.318325781250      65.121948000000
      4730    2       21.791316091518      29.318325781250      66.585360000000
      4731    2       20.998905383929      31.663791843750      65.121948000000
      4732    2       23.376140834823      31.663791843750      66.585360000000
      4733    2       24.168551542411      29.318325781250      65.121948000000
      4734    2       26.545783665177      29.318325781250      66.585360000000
      4735    2       25.753372957589      31.663791843750      65.121948000000
      4736    2       28.130608408482      31.663791843750      66.585360000000
      4737    2       28.923019116071      29.318325781250      65.121948000000
      4738    2       31.300254566965      29.318325781250      66.585360000000
      4739    2       30.507843859376      31.663791843750      65.121948000000
      4740    2       32.885075982142      31.663791843750      66.585360000000
      4741    2        0.396205686607      34.009257906250      65.121948000000
      4742    2        2.773440139062      34.009257906250      66.585360000000
      4743    2        1.981028765848      36.354723968750      65.121948000000
      4744    2        4.358263883929      36.354723968750      66.585360000000
      4745    2        5.150674591518      34.009257906250      65.121948000000
      4746    2        7.527910042412      34.009257906250      66.585360000000
      4747    2        6.735499334823      36.354723968750      65.121948000000
      4748    2        9.112731457589      36.354723968750      66.585360000000
      4749    2        9.905142165177      34.009257906250      65.121948000000
      4750    2       12.282377616071      34.009257906250      66.585360000000
      4751    2       11.489966908482      36.354723968750      65.121948000000
      4752    2       13.867202359376      36.354723968750      66.585360000000
      4753    2       14.659613066965      34.009257906250      65.121948000000
      4754    2       17.036848517858      34.009257906250      66.585360000000
      4755    2       16.244434482142      36.354723968750      65.121948000000
      4756    2       18.621669933035      36.354723968750      66.585360000000
      4757    2       19.414080640624      34.009257906250      65.121948000000
      4758    2       21.791316091518      34.009257906250      66.585360000000
      4759    2       20.998905383929      36.354723968750      65.121948000000
      4760    2       23.376140834823      36.354723968750      66.585360000000
      4761    2       24.168551542411      34.009257906250      65.121948000000
      4762    2       26.545783665177      34.009257906250      66.585360000000
      4763    2       25.753372957589      36.354723968750      65.121948000000
      4764    2       28.130608408482      36.354723968750      66.585360000000
      4765    2       28.923019116071      34.009257906250      65.121948000000
      4766    2       31.300254566965      34.009257906250      66.585360000000
      4767    2       30.507843859376      36.354723968750      65.121948000000
      4768    2       32.885075982142      36.354723968750      66.585360000000
      4769    2        0.396205686607       1.172733031250      68.048784000000
      4770    2        2.773440139062       1.172733031250      69.512196000000
      4771    2        1.981028765848       3.518199093750      68.048784000000
      4772    2        4.358263883929       3.518199093750      69.512196000000
      4773    2        5.150674591518       1.172733031250      68.048784000000
      4774    2        7.527910042412       1.172733031250      69.512196000000
      4775    2        6.735499334823       3.518199093750      68.048784000000
      4776    2        9.112731457589       3.518199093750      69.512196000000
      4777    2        9.905142165177       1.172733031250      68.048784000000
      4778    2       12.282377616071       1.172733031250      69.512196000000
      4779    2       11.489966908482       3.518199093750      68.048784000000
      4780    2       13.867202359376       3.518199093750      69.512196000000
      4781    2       14.659613066965       1.172733031250      68.048784000000
      4782    2       17.036848517858       1.172733031250      69.512196000000
      4783    2       16.244434482142       3.518199093750      68.048784000000
      4784    2       18.621669933035       3.518199093750      69.512196000000
      4785    2       19.414080640624       1.172733031250      68.048784000000
      4786    2       21.791316091518       1.172733031250      69.512196000000
      4787    2       20.998905383929       3.518199093750      68.048784000000
      4788    2       23.376140834823       3.518199093750      69.512196000000
      4789    2       24.168551542411       1.172733031250      68.048784000000
      4790    2       26.545783665177       1.172733031250      69.512196000000
      4791    2       25.753372957589       3.518199093750      68.048784000000
      4792    2       28.130608408482       3.518199093750      69.512196000000
      4793    2       28.923019116071       1.172733031250      68.048784000000
      4794    2       31.300254566965       1.172733031250      69.512196000000
      4795    2       30.507843859376       3.518199093750      68.048784000000
      4796    2       32.885075982142       3.518199093750      69.512196000000
      4797    2        0.396205686607       5.863665156250      68.048784000000
      4798    2        2.773440139062       5.863665156250      69.512196000000
      4799    2        1.981028765848       8.209131218750      68.048784000000
      4800    2        4.358263883929       8.209131218750      69.512196000000
      4801    2        5.150674591518       5.863665156250      68.048784000000
      4802    2        7.527910042412       5.863665156250      69.512196000000
      4803    2        6.735499334823       8.209131218750      68.048784000000
      4804    2        9.112731457589       8.209131218750      69.512196000000
      4805    2        9.905142165177       5.863665156250      68.048784000000
      4806    2       12.282377616071       5.863665156250      69.512196000000
      4807    2       11.489966908482       8.209131218750      68.048784000000
      4808    2       13.867202359376       8.209131218750      69.512196000000
      4809    2       14.659613066965       5.863665156250      68.048784000000
      4810    2       17.036848517858       5.863665156250      69.512196000000
      4811    2       16.244434482142       8.209131218750      68.048784000000
      4812    2       18.621669933035       8.209131218750      69.512196000000
      4813    2       19.414080640624       5.863665156250      68.048784000000
      4814    2       21.791316091518       5.863665156250      69.512196000000
      4815    2       20.998905383929       8.209131218750      68.048784000000
      4816    2       23.376140834823       8.209131218750      69.512196000000
      4817    2       24.168551542411       5.863665156250      68.048784000000
      4818    2       26.545783665177       5.863665156250      69.512196000000
      4819    2       25.753372957589       8.209131218750      68.048784000000
      4820    2       28.130608408482       8.209131218750      69.512196000000
      4821    2       28.923019116071       5.863665156250      68.048784000000
      4822    2       31.300254566965       5.863665156250      69.512196000000
      4823    2       30.507843859376       8.209131218750      68.048784000000
      4824    2       32.885075982142       8.209131218750      69.512196000000
      4825    2        0.396205686607      10.554597281250      68.048784000000
      4826    2        2.773440139062      10.554597281250      69.512196000000
      4827    2        1.981028765848      12.900063343750      68.048784000000
      4828    2        4.358263883929      12.900063343750      69.512196000000
      4829    2        5.150674591518      10.554597281250      68.048784000000
      4830    2        7.527910042412      10.554597281250      69.512196000000
      4831    2        6.735499334823      12.900063343750      68.048784000000
      4832    2        9.112731457589      12.900063343750      69.512196000000
      4833    2        9.905142165177      10.554597281250      68.048784000000
      4834    2       12.282377616071      10.554597281250      69.512196000000
      4835    2       11.489966908482      12.900063343750      68.048784000000
      4836    2       13.867202359376      12.900063343750      69.512196000000
      4837    2       14.659613066965      10.554597281250      68.048784000000
      4838    2       17.036848517858      10.554597281250      69.512196000000
      4839    2       16.244434482142      12.900063343750      68.048784000000
      4840    2       18.621669933035      12.900063343750      69.512196000000
      4841    2       19.414080640624      10.554597281250      68.048784000000
      4842    2       21.791316091518      10.554597281250      69.512196000000
      4843    2       20.998905383929      12.900063343750      68.048784000000
      4844    2       23.376140834823      12.900063343750      69.512196000000
      4845    2       24.168551542411      10.554597281250      68.048784000000
      4846    2       26.545783665177      10.554597281250      69.512196000000
      4847    2       25.753372957589      12.900063343750      68.048784000000
      4848    2       28.130608408482      12.900063343750      69.512196000000
      4849    2       28.923019116071      10.554597281250      68.048784000000
      4850    2       31.300254566965      10.554597281250      69.512196000000
      4851    2       30.507843859376      12.900063343750      68.048784000000
      4852    2       32.885075982142      12.900063343750      69.512196000000
      4853    2        0.396205686607      15.245529406250      68.048784000000
      4854    2        2.773440139062      15.245529406250      69.512196000000
      4855    2        1.981028765848      17.590995468750      68.048784000000
      4856    2        4.358263883929      17.590995468750      69.512196000000
      4857    2        5.150674591518      15.245529406250      68.048784000000
      4858    2        7.527910042412      15.245529406250      69.512196000000
      4859    2        6.735499334823      17.590995468750      68.048784000000
      4860    2        9.112731457589      17.590995468750      69.512196000000
      4861    2        9.905142165177      15.245529406250      68.048784000000
      4862    2       12.282377616071      15.245529406250      69.512196000000
      4863    2       11.489966908482      17.590995468750      68.048784000000
      4864    2       13.867202359376      17.590995468750      69.512196000000
      4865    2       14.659613066965      15.245529406250      68.048784000000
      4866    2       17.036848517858      15.245529406250      69.512196000000
      4867    2       16.244434482142      17.590995468750      68.048784000000
      4868    2       18.621669933035      17.590995468750      69.512196000000
      4869    2       19.414080640624      15.245529406250      68.048784000000
      4870    2       21.791316091518      15.245529406250      69.512196000000
      4871    2       20.998905383929      17.590995468750      68.048784000000
      4872    2       23.376140834823      17.590995468750      69.512196000000
      4873    2       24.168551542411      15.245529406250      68.048784000000
      4874    2       26.545783665177      15.245529406250      69.512196000000
      4875    2       25.753372957589      17.590995468750      68.048784000000
      4876    2       28.130608408482      17.590995468750      69.512196000000
      4877    2       28.923019116071      15.245529406250      68.048784000000
      4878    2       31.300254566965      15.245529406250      69.512196000000
      4879    2       30.507843859376      17.590995468750      68.048784000000
      4880    2       32.885075982142      17.590995468750      69.512196000000
      4881    2        0.396205686607      19.936461531250      68.048784000000
      4882    2        2.773440139062      19.936461531250      69.512196000000
      4883    2        1.981028765848      22.281927593750      68.048784000000
      4884    2        4.358263883929      22.281927593750      69.512196000000
      4885    2        5.150674591518      19.936461531250      68.048784000000
      4886    2        7.527910042412      19.936461531250      69.512196000000
      4887    2        6.735499334823      22.281927593750      68.048784000000
      4888    2        9.112731457589      22.281927593750      69.512196000000
      4889    2        9.905142165177      19.936461531250      68.048784000000
      4890    2       12.282377616071      19.936461531250      69.512196000000
      4891    2       11.489966908482      22.281927593750      68.048784000000
      4892    2       13.867202359376      22.281927593750      69.512196000000
      4893    2       14.659613066965      19.936461531250      68.048784000000
      4894    2       17.036848517858      19.936461531250      69.512196000000
      4895    2       16.244434482142      22.281927593750      68.048784000000
      4896    2       18.621669933035      22.281927593750      69.512196000000
      4897    2       19.414080640624      19.936461531250      68.048784000000
      4898    2       21.791316091518      19.936461531250      69.512196000000
      4899    2       20.998905383929      22.281927593750      68.048784000000
      4900    2       23.376140834823      22.281927593750      69.512196000000
      4901    2       24.168551542411      19.936461531250      68.048784000000
      4902    2       26.545783665177      19.936461531250      69.512196000000
      4903    2       25.753372957589      22.281927593750      68.048784000000
      4904    2       28.130608408482      22.281927593750      69.512196000000
      4905    2       28.923019116071      19.936461531250      68.048784000000
      4906    2       31.300254566965      19.936461531250      69.512196000000
      4907    2       30.507843859376      22.281927593750      68.048784000000
      4908    2       32.885075982142      22.281927593750      69.512196000000
      4909    2        0.396205686607      24.627393656250      68.048784000000
      4910    2        2.773440139062      24.627393656250      69.512196000000
      4911    2        1.981028765848      26.972859718750      68.048784000000
      4912    2        4.358263883929      26.972859718750      69.512196000000
      4913    2        5.150674591518      24.627393656250      68.048784000000
      4914    2        7.527910042412      24.627393656250      69.512196000000
      4915    2        6.735499334823      26.972859718750      68.048784000000
      4916    2        9.112731457589      26.972859718750      69.512196000000
      4917    2        9.905142165177      24.627393656250      68.048784000000
      4918    2       12.282377616071      24.627393656250      69.512196000000
      4919    2       11.489966908482      26.972859718750      68.048784000000
      4920    2       13.867202359376      26.972859718750      69.512196000000
      4921    2       14.659613066965      24.627393656250      68.048784000000
      4922    2       17.036848517858      24.627393656250      69.512196000000
      4923    2       16.244434482142      26.972859718750      68.048784000000
      4924    2       18.621669933035      26.972859718750      69.512196000000
      4925    2       19.414080640624      24.627393656250      68.048784000000
      4926    2       21.791316091518      24.627393656250      69.512196000000
      4927    2       20.998905383929      26.972859718750      68.048784000000
      4928    2       23.376140834823      26.972859718750      69.512196000000
      4929    2       24.168551542411      24.627393656250      68.048784000000
      4930    2       26.545783665177      24.627393656250      69.512196000000
      4931    2       25.753372957589      26.972859718750      68.048784000000
      4932    2       28.130608408482      26.972859718750      69.512196000000
      4933    2       28.923019116071      24.627393656250      68.048784000000
      4934    2       31.300254566965      24.627393656250      69.512196000000
      4935    2       30.507843859376      26.972859718750      68.048784000000
      4936    2       32.885075982142      26.972859718750      69.512196000000
      4937    2        0.396205686607      29.318325781250      68.048784000000
      4938    2        2.773440139062      29.318325781250      69.512196000000
      4939    2        1.981028765848      31.663791843750      68.048784000000
      4940    2        4.358263883929      31.663791843750      69.512196000000
      4941    2        5.150674591518      29.318325781250      68.048784000000
      4942    2        7.527910042412      29.318325781250      69.512196000000
      4943    2        6.735499334823      31.663791843750      68.048784000000
      4944    2        9.112731457589      31.663791843750      69.512196000000
      4945    2        9.905142165177      29.318325781250      68.048784000000
      4946    2       12.282377616071      29.318325781250      69.512196000000
      4947    2       11.489966908482      31.663791843750      68.048784000000
      4948    2       13.867202359376      31.663791843750      69.512196000000
      4949    2       14.659613066965      29.318325781250      68.048784000000
      4950    2       17.036848517858      29.318325781250      69.512196000000
      4951    2       16.244434482142      31.663791843750      68.048784000000
      4952    2       18.621669933035      31.663791843750      69.512196000000
      4953    2       19.414080640624      29.318325781250      68.048784000000
      4954    2       21.791316091518      29.318325781250      69.512196000000
      4955    2       20.998905383929      31.663791843750      68.048784000000
      4956    2       23.376140834823      31.663791843750      69.512196000000
      4957    2       24.168551542411      29.318325781250      68.048784000000
      4958    2       26.545783665177      29.318325781250      69.512196000000
      4959    2       25.753372957589      31.663791843750      68.048784000000
      4960    2       28.130608408482      31.663791843750      69.512196000000
      4961    2       28.923019116071      29.318325781250      68.048784000000
      4962    2       31.300254566965      29.318325781250      69.512196000000
      4963    2       30.507843859376      31.663791843750      68.048784000000
      4964    2       32.885075982142      31.663791843750      69.512196000000
      4965    2        0.396205686607      34.009257906250      68.048784000000
      4966    2        2.773440139062      34.009257906250      69.512196000000
      4967    2        1.981028765848      36.354723968750      68.048784000000
      4968    2        4.358263883929      36.354723968750      69.512196000000
      4969    2        5.150674591518      34.009257906250      68.048784000000
      4970    2        7.527910042412      34.009257906250      69.512196000000
      4971    2        6.735499334823      36.354723968750      68.048784000000
      4972    2        9.112731457589      36.354723968750      69.512196000000
      4973    2        9.905142165177      34.009257906250      68.048784000000
      4974    2       12.282377616071      34.009257906250      69.512196000000
      4975    2       11.489966908482      36.354723968750      68.048784000000
      4976    2       13.867202359376      36.354723968750      69.512196000000
      4977    2       14.659613066965      34.009257906250      68.048784000000
      4978    2       17.036848517858      34.009257906250      69.512196000000
      4979    2       16.244434482142      36.354723968750      68.048784000000
      4980    2       18.621669933035      36.354723968750      69.512196000000
      4981    2       19.414080640624      34.009257906250      68.048784000000
      4982    2       21.791316091518      34.009257906250      69.512196000000
      4983    2       20.998905383929      36.354723968750      68.048784000000
      4984    2       23.376140834823      36.354723968750      69.512196000000
      4985    2       24.168551542411      34.009257906250      68.048784000000
      4986    2       26.545783665177      34.009257906250      69.512196000000
      4987    2       25.753372957589      36.354723968750      68.048784000000
      4988    2       28.130608408482      36.354723968750      69.512196000000
      4989    2       28.923019116071      34.009257906250      68.048784000000
      4990    2       31.300254566965      34.009257906250      69.512196000000
      4991    2       30.507843859376      36.354723968750      68.048784000000
      4992    2       32.885075982142      36.354723968750      69.512196000000
      4993    2        0.396205686607       1.172733031250      70.975608000000
      4994    2        2.773440139062       1.172733031250      72.439020000000
      4995    2        1.981028765848       3.518199093750      70.975608000000
      4996    2        4.358263883929       3.518199093750      72.439020000000
      4997    2        5.150674591518       1.172733031250      70.975608000000
      4998    2        7.527910042412       1.172733031250      72.439020000000
      4999    2        6.735499334823       3.518199093750      70.975608000000
      5000    2        9.112731457589       3.518199093750      72.439020000000
      5001    2        9.905142165177       1.172733031250      70.975608000000
      5002    2       12.282377616071       1.172733031250      72.439020000000
      5003    2       11.489966908482       3.518199093750      70.975608000000
      5004    2       13.867202359376       3.518199093750      72.439020000000
      5005    2       14.659613066965       1.172733031250      70.975608000000
      5006    2       17.036848517858       1.172733031250      72.439020000000
      5007    2       16.244434482142       3.518199093750      70.975608000000
      5008    2       18.621669933035       3.518199093750      72.439020000000
      5009    2       19.414080640624       1.172733031250      70.975608000000
      5010    2       21.791316091518       1.172733031250      72.439020000000
      5011    2       20.998905383929       3.518199093750      70.975608000000
      5012    2       23.376140834823       3.518199093750      72.439020000000
      5013    2       24.168551542411       1.172733031250      70.975608000000
      5014    2       26.545783665177       1.172733031250      72.439020000000
      5015    2       25.753372957589       3.518199093750      70.975608000000
      5016    2       28.130608408482       3.518199093750      72.439020000000
      5017    2       28.923019116071       1.172733031250      70.975608000000
      5018    2       31.300254566965       1.172733031250      72.439020000000
      5019    2       30.507843859376       3.518199093750      70.975608000000
      5020    2       32.885075982142       3.518199093750      72.439020000000
      5021    2        0.396205686607       5.863665156250      70.975608000000
      5022    2        2.773440139062       5.863665156250      72.439020000000
      5023    2        1.981028765848       8.209131218750      70.975608000000
      5024    2        4.358263883929       8.209131218750      72.439020000000
      5025    2        5.150674591518       5.863665156250      70.975608000000
      5026    2        7.527910042412       5.863665156250      72.439020000000
      5027    2        6.735499334823       8.209131218750      70.975608000000
      5028    2        9.112731457589       8.209131218750      72.439020000000
      5029    2        9.905142165177       5.863665156250      70.975608000000
      5030    2       12.282377616071       5.863665156250      72.439020000000
      5031    2       11.489966908482       8.209131218750      70.975608000000
      5032    2       13.867202359376       8.209131218750      72.439020000000
      5033    2       14.659613066965       5.863665156250      70.975608000000
      5034    2       17.036848517858       5.863665156250      72.439020000000
      5035    2       16.244434482142       8.209131218750      70.975608000000
      5036    2       18.621669933035       8.209131218750      72.439020000000
      5037    2       19.414080640624       5.863665156250      70.975608000000
      5038    2       21.791316091518       5.863665156250      72.439020000000
      5039    2       20.998905383929       8.209131218750      70.975608000000
      5040    2       23.376140834823       8.209131218750      72.439020000000
      5041    2       24.168551542411       5.863665156250      70.975608000000
      5042    2       26.545783665177       5.863665156250      72.439020000000
      5043    2       25.753372957589       8.209131218750      70.975608000000
      5044    2       28.130608408482       8.209131218750      72.439020000000
      5045    2       28.923019116071       5.863665156250      70.975608000000
      5046    2       31.300254566965       5.863665156250      72.439020000000
      5047    2       30.507843859376       8.209131218750      70.975608000000
      5048    2       32.885075982142       8.209131218750      72.439020000000
      5049    2        0.396205686607      10.554597281250      70.975608000000
      5050    2        2.773440139062      10.554597281250      72.439020000000
      5051    2        1.981028765848      12.900063343750      70.975608000000
      5052    2        4.358263883929      12.900063343750      72.439020000000
      5053    2        5.150674591518      10.554597281250      70.975608000000
      5054    2        7.527910042412      10.554597281250      72.439020000000
      5055    2        6.735499334823      12.900063343750      70.975608000000
      5056    2        9.112731457589      12.900063343750      72.439020000000
      5057    2        9.905142165177      10.554597281250      70.975608000000
      5058    2       12.282377616071      10.554597281250      72.439020000000
      5059    2       11.489966908482      12.900063343750      70.975608000000
      5060    2       13.867202359376      12.900063343750      72.439020000000
      5061    2       14.659613066965      10.554597281250      70.975608000000
      5062    2       17.036848517858      10.554597281250      72.439020000000
      5063    2       16.244434482142      12.900063343750      70.975608000000
      5064    2       18.621669933035      12.900063343750      72.439020000000
      5065    2       19.414080640624      10.554597281250      70.975608000000
      5066    2       21.791316091518      10.554597281250      72.439020000000
      5067    2       20.998905383929      12.900063343750      70.975608000000
      5068    2       23.376140834823      12.900063343750      72.439020000000
      5069    2       24.168551542411      10.554597281250      70.975608000000
      5070    2       26.545783665177      10.554597281250      72.439020000000
      5071    2       25.753372957589      12.900063343750      70.975608000000
      5072    2       28.130608408482      12.900063343750      72.439020000000
      5073    2       28.923019116071      10.554597281250      70.975608000000
      5074    2       31.300254566965      10.554597281250      72.439020000000
      5075    2       30.507843859376      12.900063343750      70.975608000000
      5076    2       32.885075982142      12.900063343750      72.439020000000
      5077    2        0.396205686607      15.245529406250      70.975608000000
      5078    2        2.773440139062      15.245529406250      72.439020000000
      5079    2        1.981028765848      17.590995468750      70.975608000000
      5080    2        4.358263883929      17.590995468750      72.439020000000
      5081    2        5.150674591518      15.245529406250      70.975608000000
      5082    2        7.527910042412      15.245529406250      72.439020000000
      5083    2        6.735499334823      17.590995468750      70.975608000000
      5084    2        9.112731457589      17.590995468750      72.439020000000
      5085    2        9.905142165177      15.245529406250      70.975608000000
      5086    2       12.282377616071      15.245529406250      72.439020000000
      5087    2       11.489966908482      17.590995468750      70.975608000000
      5088    2       13.867202359376      17.590995468750      72.439020000000
      5089    2       14.659613066965      15.245529406250      70.975608000000
      5090    2       17.036848517858      15.245529406250      72.439020000000
      5091    2       16.244434482142      17.590995468750      70.975608000000
      5092    2       18.621669933035      17.590995468750      72.439020000000
      5093    2       19.414080640624      15.245529406250      70.975608000000
      5094    2       21.791316091518      15.245529406250      72.439020000000
      5095    2       20.998905383929      17.590995468750      70.975608000000
      5096    2       23.376140834823      17.590995468750      72.439020000000
      5097    2       24.168551542411      15.245529406250      70.975608000000
      5098    2       26.545783665177      15.245529406250      72.439020000000
      5099    2       25.753372957589      17.590995468750      70.975608000000
      5100    2       28.130608408482      17.590995468750      72.439020000000
      5101    2       28.923019116071      15.245529406250      70.975608000000
      5102    2       31.300254566965      15.245529406250      72.439020000000
      5103    2       30.507843859376      17.590995468750      70.975608000000
      5104    2       32.885075982142      17.590995468750      72.439020000000
      5105    2        0.396205686607      19.936461531250      70.975608000000
      5106    2        2.773440139062      19.936461531250      72.439020000000
      5107    2        1.981028765848      22.281927593750      70.975608000000
      5108    2        4.358263883929      22.281927593750      72.439020000000
      5109    2        5.150674591518      19.936461531250      70.975608000000
      5110    2        7.527910042412      19.936461531250      72.439020000000
      5111    2        6.735499334823      22.281927593750      70.975608000000
      5112    2        9.112731457589      22.281927593750      72.439020000000
      5113    2        9.905142165177      19.936461531250      70.975608000000
      5114    2       12.282377616071      19.936461531250      72.439020000000
      5115    2       11.489966908482      22.281927593750      70.975608000000
      5116    2       13.867202359376      22.281927593750      72.439020000000
      5117    2       14.659613066965      19.936461531250      70.975608000000
      5118    2       17.036848517858      19.936461531250      72.439020000000
      5119    2       16.244434482142      22.281927593750      70.975608000000
      5120    2       18.621669933035      22.281927593750      72.439020000000
      5121    2       19.414080640624      19.936461531250      70.975608000000
      5122    2       21.791316091518      19.936461531250      72.439020000000
      5123    2       20.998905383929      22.281927593750      70.975608000000
      5124    2       23.376140834823      22.281927593750      72.439020000000
      5125    2       24.168551542411      19.936461531250      70.975608000000
      5126    2       26.545783665177      19.936461531250      72.439020000000
      5127    2       25.753372957589      22.281927593750      70.975608000000
      5128    2       28.130608408482      22.281927593750      72.439020000000
      5129    2       28.923019116071      19.936461531250      70.975608000000
      5130    2       31.300254566965      19.936461531250      72.439020000000
      5131    2       30.507843859376      22.281927593750      70.975608000000
      5132    2       32.885075982142      22.281927593750      72.439020000000
      5133    2        0.396205686607      24.627393656250      70.975608000000
      5134    2        2.773440139062      24.627393656250      72.439020000000
      5135    2        1.981028765848      26.972859718750      70.975608000000
      5136    2        4.358263883929      26.972859718750      72.439020000000
      5137    2        5.150674591518      24.627393656250      70.975608000000
      5138    2        7.527910042412      24.627393656250      72.439020000000
      5139    2        6.735499334823      26.972859718750      70.975608000000
      5140    2        9.112731457589      26.972859718750      72.439020000000
      5141    2        9.905142165177      24.627393656250      70.975608000000
      5142    2       12.282377616071      24.627393656250      72.439020000000
      5143    2       11.489966908482      26.972859718750      70.975608000000
      5144    2       13.867202359376      26.972859718750      72.439020000000
      5145    2       14.659613066965      24.627393656250      70.975608000000
      5146    2       17.036848517858      24.627393656250      72.439020000000
      5147    2       16.244434482142      26.972859718750      70.975608000000
      5148    2       18.621669933035      26.972859718750      72.439020000000
      5149    2       19.414080640624      24.627393656250      70.975608000000
      5150    2       21.791316091518      24.627393656250      72.439020000000
      5151    2       20.998905383929      26.972859718750      70.975608000000
      5152    2       23.376140834823      26.972859718750      72.439020000000
      5153    2       24.168551542411      24.627393656250      70.975608000000
      5154    2       26.545783665177      24.627393656250      72.439020000000
      5155    2       25.753372957589      26.972859718750      70.975608000000
      5156    2       28.130608408482      26.972859718750      72.439020000000
      5157    2       28.923019116071      24.627393656250      70.975608000000
      5158    2       31.300254566965      24.627393656250      72.439020000000
      5159    2       30.507843859376      26.972859718750      70.975608000000
      5160    2       32.885075982142      26.972859718750      72.439020000000
      5161    2        0.396205686607      29.318325781250      70.975608000000
      5162    2        2.773440139062      29.318325781250      72.439020000000
      5163    2        1.981028765848      31.663791843750      70.975608000000
      5164    2        4.358263883929      31.663791843750      72.439020000000
      5165    2        5.150674591518      29.318325781250      70.975608000000
      5166    2        7.527910042412      29.318325781250      72.439020000000
      5167    2        6.735499334823      31.663791843750      70.975608000000
      5168    2        9.112731457589      31.663791843750      72.439020000000
      5169    2        9.905142165177      29.318325781250      70.975608000000
      5170    2       12.282377616071      29.318325781250      72.439020000000
      5171    2       11.489966908482      31.663791843750      70.975608000000
      5172    2       13.867202359376      31.663791843750      72.439020000000
      5173    2       14.659613066965      29.318325781250      70.975608000000
      5174    2       17.036848517858      29.318325781250      72.439020000000
      5175    2       16.244434482142      31.663791843750      70.975608000000
      5176    2       18.621669933035      31.663791843750      72.439020000000
      5177    2       19.414080640624      29.318325781250      70.975608000000
      5178    2       21.791316091518      29.318325781250      72.439020000000
      5179    2       20.998905383929      31.663791843750      70.975608000000
      5180    2       23.376140834823      31.663791843750      72.439020000000
      5181    2       24.168551542411      29.318325781250      70.975608000000
      5182    2       26.545783665177      29.318325781250      72.439020000000
      5183    2       25.753372957589      31.663791843750      70.975608000000
      5184    2       28.130608408482      31.663791843750      72.439020000000
      5185    2       28.923019116071      29.318325781250      70.975608000000
      5186    2       31.300254566965      29.318325781250      72.439020000000
      5187    2       30.507843859376      31.663791843750      70.975608000000
      5188    2       32.885075982142      31.663791843750      72.439020000000
      5189    2        0.396205686607      34.009257906250      70.975608000000
      5190    2        2.773440139062      34.009257906250      72.439020000000
      5191    2        1.981028765848      36.354723968750      70.975608000000
      5192    2        4.358263883929      36.354723968750      72.439020000000
      5193    2        5.150674591518      34.009257906250      70.975608000000
      5194    2        7.527910042412      34.009257906250      72.439020000000
      5195    2        6.735499334823      36.354723968750      70.975608000000
      5196    2        9.112731457589      36.354723968750      72.439020000000
      5197    2        9.905142165177      34.009257906250      70.975608000000
      5198    2       12.282377616071      34.009257906250      72.439020000000
      5199    2       11.489966908482      36.354723968750      70.975608000000
      5200    2       13.867202359376      36.354723968750      72.439020000000
      5201    2       14.659613066965      34.009257906250      70.975608000000
      5202    2       17.036848517858      34.009257906250      72.439020000000
      5203    2       16.244434482142      36.354723968750      70.975608000000
      5204    2       18.621669933035      36.354723968750      72.439020000000
      5205    2       19.414080640624      34.009257906250      70.975608000000
      5206    2       21.791316091518      34.009257906250      72.439020000000
      5207    2       20.998905383929      36.354723968750      70.975608000000
      5208    2       23.376140834823      36.354723968750      72.439020000000
      5209    2       24.168551542411      34.009257906250      70.975608000000
      5210    2       26.545783665177      34.009257906250      72.439020000000
      5211    2       25.753372957589      36.354723968750      70.975608000000
      5212    2       28.130608408482      36.354723968750      72.439020000000
      5213    2       28.923019116071      34.009257906250      70.975608000000
      5214    2       31.300254566965      34.009257906250      72.439020000000
      5215    2       30.507843859376      36.354723968750      70.975608000000
      5216    2       32.885075982142      36.354723968750      72.439020000000
      5217    2        0.396205686607       1.172733031250      73.902444000000
      5218    2        2.773440139062       1.172733031250      75.365856000000
      5219    2        1.981028765848       3.518199093750      73.902444000000
      5220    2        4.358263883929       3.518199093750      75.365856000000
      5221    2        5.150674591518       1.172733031250      73.902444000000
      5222    2        7.527910042412       1.172733031250      75.365856000000
      5223    2        6.735499334823       3.518199093750      73.902444000000
      5224    2        9.112731457589       3.518199093750      75.365856000000
      5225    2        9.905142165177       1.172733031250      73.902444000000
      5226    2       12.282377616071       1.172733031250      75.365856000000
      5227    2       11.489966908482       3.518199093750      73.902444000000
      5228    2       13.867202359376       3.518199093750      75.365856000000
      5229    2       14.659613066965       1.172733031250      73.902444000000
      5230    2       17.036848517858       1.172733031250      75.365856000000
      5231    2       16.244434482142       3.518199093750      73.902444000000
      5232    2       18.621669933035       3.518199093750      75.365856000000
      5233    2       19.414080640624       1.172733031250      73.902444000000
      5234    2       21.791316091518       1.172733031250      75.365856000000
      5235    2       20.998905383929       3.518199093750      73.902444000000
      5236    2       23.376140834823       3.518199093750      75.365856000000
      5237    2       24.168551542411       1.172733031250      73.902444000000
      5238    2       26.545783665177       1.172733031250      75.365856000000
      5239    2       25.753372957589       3.518199093750      73.902444000000
      5240    2       28.130608408482       3.518199093750      75.365856000000
      5241    2       28.923019116071       1.172733031250      73.902444000000
      5242    2       31.300254566965       1.172733031250      75.365856000000
      5243    2       30.507843859376       3.518199093750      73.902444000000
      5244    2       32.885075982142       3.518199093750      75.365856000000
      5245    2        0.396205686607       5.863665156250      73.902444000000
      5246    2        2.773440139062       5.863665156250      75.365856000000
      5247    2        1.981028765848       8.209131218750      73.902444000000
      5248    2        4.358263883929       8.209131218750      75.365856000000
      5249    2        5.150674591518       5.863665156250      73.902444000000
      5250    2        7.527910042412       5.863665156250      75.365856000000
      5251    2        6.735499334823       8.209131218750      73.902444000000
      5252    2        9.112731457589       8.209131218750      75.365856000000
      5253    2        9.905142165177       5.863665156250      73.902444000000
      5254    2       12.282377616071       5.863665156250      75.365856000000
      5255    2       11.489966908482       8.209131218750      73.902444000000
      5256    2       13.867202359376       8.209131218750      75.365856000000
      5257    2       14.659613066965       5.863665156250      73.902444000000
      5258    2       17.036848517858       5.863665156250      75.365856000000
      5259    2       16.244434482142       8.209131218750      73.902444000000
      5260    2       18.621669933035       8.209131218750      75.365856000000
      5261    2       19.414080640624       5.863665156250      73.902444000000
      5262    2       21.791316091518       5.863665156250      75.365856000000
      5263    2       20.998905383929       8.209131218750      73.902444000000
      5264    2       23.376140834823       8.209131218750      75.365856000000
      5265    2       24.168551542411       5.863665156250      73.902444000000
      5266    2       26.545783665177       5.863665156250      75.365856000000
      5267    2       25.753372957589       8.209131218750      73.902444000000
      5268    2       28.130608408482       8.209131218750      75.365856000000
      5269    2       28.923019116071       5.863665156250      73.902444000000
      5270    2       31.300254566965       5.863665156250      75.365856000000
      5271    2       30.507843859376       8.209131218750      73.902444000000
      5272    2       32.885075982142       8.209131218750      75.365856000000
      5273    2        0.396205686607      10.554597281250      73.902444000000
      5274    2        2.773440139062      10.554597281250      75.365856000000
      5275    2        1.981028765848      12.900063343750      73.902444000000
      5276    2        4.358263883929      12.900063343750      75.365856000000
      5277    2        5.150674591518      10.554597281250      73.902444000000
      5278    2        7.527910042412      10.554597281250      75.365856000000
      5279    2        6.735499334823      12.900063343750      73.902444000000
      5280    2        9.112731457589      12.900063343750      75.365856000000
      5281    2        9.905142165177      10.554597281250      73.902444000000
      5282    2       12.282377616071      10.554597281250      75.365856000000
      5283    2       11.489966908482      12.900063343750      73.902444000000
      5284    2       13.867202359376      12.900063343750      75.365856000000
      5285    2       14.659613066965      10.554597281250      73.902444000000
      5286    2       17.036848517858      10.554597281250      75.365856000000
      5287    2       16.244434482142      12.900063343750      73.902444000000
      5288    2       18.621669933035      12.900063343750      75.365856000000
      5289    2       19.414080640624      10.554597281250      73.902444000000
      5290    2       21.791316091518      10.554597281250      75.365856000000
      5291    2       20.998905383929      12.900063343750      73.902444000000
      5292    2       23.376140834823      12.900063343750      75.365856000000
      5293    2       24.168551542411      10.554597281250      73.902444000000
      5294    2       26.545783665177      10.554597281250      75.365856000000
      5295    2       25.753372957589      12.900063343750      73.902444000000
      5296    2       28.130608408482      12.900063343750      75.365856000000
      5297    2       28.923019116071      10.554597281250      73.902444000000
      5298    2       31.300254566965      10.554597281250      75.365856000000
      5299    2       30.507843859376      12.900063343750      73.902444000000
      5300    2       32.885075982142      12.900063343750      75.365856000000
      5301    2        0.396205686607      15.245529406250      73.902444000000
      5302    2        2.773440139062      15.245529406250      75.365856000000
      5303    2        1.981028765848      17.590995468750      73.902444000000
      5304    2        4.358263883929      17.590995468750      75.365856000000
      5305    2        5.150674591518      15.245529406250      73.902444000000
      5306    2        7.527910042412      15.245529406250      75.365856000000
      5307    2        6.735499334823      17.590995468750      73.902444000000
      5308    2        9.112731457589      17.590995468750      75.365856000000
      5309    2        9.905142165177      15.245529406250      73.902444000000
      5310    2       12.282377616071      15.245529406250      75.365856000000
      5311    2       11.489966908482      17.590995468750      73.902444000000
      5312    2       13.867202359376      17.590995468750      75.365856000000
      5313    2       14.659613066965      15.245529406250      73.902444000000
      5314    2       17.036848517858      15.245529406250      75.365856000000
      5315    2       16.244434482142      17.590995468750      73.902444000000
      5316    2       18.621669933035      17.590995468750      75.365856000000
      5317    2       19.414080640624      15.245529406250      73.902444000000
      5318    2       21.791316091518      15.245529406250      75.365856000000
      5319    2       20.998905383929      17.590995468750      73.902444000000
      5320    2       23.376140834823      17.590995468750      75.365856000000
      5321    2       24.168551542411      15.245529406250      73.902444000000
      5322    2       26.545783665177      15.245529406250      75.365856000000
      5323    2       25.753372957589      17.590995468750      73.902444000000
      5324    2       28.130608408482      17.590995468750      75.365856000000
      5325    2       28.923019116071      15.245529406250      73.902444000000
      5326    2       31.300254566965      15.245529406250      75.365856000000
      5327    2       30.507843859376      17.590995468750      73.902444000000
      5328    2       32.885075982142      17.590995468750      75.365856000000
      5329    2        0.396205686607      19.936461531250      73.902444000000
      5330    2        2.773440139062      19.936461531250      75.365856000000
      5331    2        1.981028765848      22.281927593750      73.902444000000
      5332    2        4.358263883929      22.281927593750      75.365856000000
      5333    2        5.150674591518      19.936461531250      73.902444000000
      5334    2        7.527910042412      19.936461531250      75.365856000000
      5335    2        6.735499334823      22.281927593750      73.902444000000
      5336    2        9.112731457589      22.281927593750      75.365856000000
      5337    2        9.905142165177      19.936461531250      73.902444000000
      5338    2       12.282377616071      19.936461531250      75.365856000000
      5339    2       11.489966908482      22.281927593750      73.902444000000
      5340    2       13.867202359376      22.281927593750      75.365856000000
      5341    2       14.659613066965      19.936461531250      73.902444000000
      5342    2       17.036848517858      19.936461531250      75.365856000000
      5343    2       16.244434482142      22.281927593750      73.902444000000
      5344    2       18.621669933035      22.281927593750      75.365856000000
      5345    2       19.414080640624      19.936461531250      73.902444000000
      5346    2       21.791316091518      19.936461531250      75.365856000000
      5347    2       20.998905383929      22.281927593750      73.902444000000
      5348    2       23.376140834823      22.281927593750      75.365856000000
      5349    2       24.168551542411      19.936461531250      73.902444000000
      5350    2       26.545783665177      19.936461531250      75.365856000000
      5351    2       25.753372957589      22.281927593750      73.902444000000
      5352    2       28.130608408482      22.281927593750      75.365856000000
      5353    2       28.923019116071      19.936461531250      73.902444000000
      5354    2       31.300254566965      19.936461531250      75.365856000000
      5355    2       30.507843859376      22.281927593750      73.902444000000
      5356    2       32.885075982142      22.281927593750      75.365856000000
      5357    2        0.396205686607      24.627393656250      73.902444000000
      5358    2        2.773440139062      24.627393656250      75.365856000000
      5359    2        1.981028765848      26.972859718750      73.902444000000
      5360    2        4.358263883929      26.972859718750      75.365856000000
      5361    2        5.150674591518      24.627393656250      73.902444000000
      5362    2        7.527910042412      24.627393656250      75.365856000000
      5363    2        6.735499334823      26.972859718750      73.902444000000
      5364    2        9.112731457589      26.972859718750      75.365856000000
      5365    2        9.905142165177      24.627393656250      73.902444000000
      5366    2       12.282377616071      24.627393656250      75.365856000000
      5367    2       11.489966908482      26.972859718750      73.902444000000
      5368    2       13.867202359376      26.972859718750      75.365856000000
      5369    2       14.659613066965      24.627393656250      73.902444000000
      5370    2       17.036848517858      24.627393656250      75.365856000000
      5371    2       16.244434482142      26.972859718750      73.902444000000
      5372    2       18.621669933035      26.972859718750      75.365856000000
      5373    2       19.414080640624      24.627393656250      73.902444000000
      5374    2       21.791316091518      24.627393656250      75.365856000000
      5375    2       20.998905383929      26.972859718750      73.902444000000
      5376    2       23.376140834823      26.972859718750      75.365856000000
      5377    2       24.168551542411      24.627393656250      73.902444000000
      5378    2       26.545783665177      24.627393656250      75.365856000000
      5379    2       25.753372957589      26.972859718750      73.902444000000
      5380    2       28.130608408482      26.972859718750      75.365856000000
      5381    2       28.923019116071      24.627393656250      73.902444000000
      5382    2       31.300254566965      24.627393656250      75.365856000000
      5383    2       30.507843859376      26.972859718750      73.902444000000
      5384    2       32.885075982142      26.972859718750      75.365856000000
      5385    2        0.396205686607      29.318325781250      73.902444000000
      5386    2        2.773440139062      29.318325781250      75.365856000000
      5387    2        1.981028765848      31.663791843750      73.902444000000
      5388    2        4.358263883929      31.663791843750      75.365856000000
      5389    2        5.150674591518      29.318325781250      73.902444000000
      5390    2        7.527910042412      29.318325781250      75.365856000000
      5391    2        6.735499334823      31.663791843750      73.902444000000
      5392    2        9.112731457589      31.663791843750      75.365856000000
      5393    2        9.905142165177      29.318325781250      73.902444000000
      5394    2       12.282377616071      29.318325781250      75.365856000000
      5395    2       11.489966908482      31.663791843750      73.902444000000
      5396    2       13.867202359376      31.663791843750      75.365856000000
      5397    2       14.659613066965      29.318325781250      73.902444000000
      5398    2       17.036848517858      29.318325781250      75.365856000000
      5399    2       16.244434482142      31.663791843750      73.902444000000
      5400    2       18.621669933035      31.663791843750      75.365856000000
      5401    2       19.414080640624      29.318325781250      73.902444000000
      5402    2       21.791316091518      29.318325781250      75.365856000000
      5403    2       20.998905383929      31.663791843750      73.902444000000
      5404    2       23.376140834823      31.663791843750      75.365856000000
      5405    2       24.168551542411      29.318325781250      73.902444000000
      5406    2       26.545783665177      29.318325781250      75.365856000000
      5407    2       25.753372957589      31.663791843750      73.902444000000
      5408    2       28.130608408482      31.663791843750      75.365856000000
      5409    2       28.923019116071      29.318325781250      73.902444000000
      5410    2       31.300254566965      29.318325781250      75.365856000000
      5411    2       30.507843859376      31.663791843750      73.902444000000
      5412    2       32.885075982142      31.663791843750      75.365856000000
      5413    2        0.396205686607      34.009257906250      73.902444000000
      5414    2        2.773440139062      34.009257906250      75.365856000000
      5415    2        1.981028765848      36.354723968750      73.902444000000
      5416    2        4.358263883929      36.354723968750      75.365856000000
      5417    2        5.150674591518      34.009257906250      73.902444000000
      5418    2        7.527910042412      34.009257906250      75.365856000000
      5419    2        6.735499334823      36.354723968750      73.902444000000
      5420    2        9.112731457589      36.354723968750      75.365856000000
      5421    2        9.905142165177      34.009257906250      73.902444000000
      5422    2       12.282377616071      34.009257906250      75.365856000000
      5423    2       11.489966908482      36.354723968750      73.902444000000
      5424    2       13.867202359376      36.354723968750      75.365856000000
      5425    2       14.659613066965      34.009257906250      73.902444000000
      5426    2       17.036848517858      34.009257906250      75.365856000000
      5427    2       16.244434482142      36.354723968750      73.902444000000
      5428    2       18.621669933035      36.354723968750      75.365856000000
      5429    2       19.414080640624      34.009257906250      73.902444000000
      5430    2       21.791316091518      34.009257906250      75.365856000000
      5431    2       20.998905383929      36.354723968750      73.902444000000
      5432    2       23.376140834823      36.354723968750      75.365856000000
      5433    2       24.168551542411      34.009257906250      73.902444000000
      5434    2       26.545783665177      34.009257906250      75.365856000000
      5435    2       25.753372957589      36.354723968750      73.902444000000
      5436    2       28.130608408482      36.354723968750      75.365856000000
      5437    2       28.923019116071      34.009257906250      73.902444000000
      5438    2       31.300254566965      34.009257906250      75.365856000000
      5439    2       30.507843859376      36.354723968750      73.902444000000
      5440    2       32.885075982142      36.354723968750      75.365856000000
      5441    2        0.396205686607       1.172733031250      76.829268000000
      5442    2        2.773440139062       1.172733031250      78.292680000000
      5443    2        1.981028765848       3.518199093750      76.829268000000
      5444    2        4.358263883929       3.518199093750      78.292680000000
      5445    2        5.150674591518       1.172733031250      76.829268000000
      5446    2        7.527910042412       1.172733031250      78.292680000000
      5447    2        6.735499334823       3.518199093750      76.829268000000
      5448    2        9.112731457589       3.518199093750      78.292680000000
      5449    2        9.905142165177       1.172733031250      76.829268000000
      5450    2       12.282377616071       1.172733031250      78.292680000000
      5451    2       11.489966908482       3.518199093750      76.829268000000
      5452    2       13.867202359376       3.518199093750      78.292680000000
      5453    2       14.659613066965       1.172733031250      76.829268000000
      5454    2       17.036848517858       1.172733031250      78.292680000000
      5455    2       16.244434482142       3.518199093750      76.829268000000
      5456    2       18.621669933035       3.518199093750      78.292680000000
      5457    2       19.414080640624       1.172733031250      76.829268000000
      5458    2       21.791316091518       1.172733031250      78.292680000000
      5459    2       20.998905383929       3.518199093750      76.829268000000
      5460    2       23.376140834823       3.518199093750      78.292680000000
      5461    2       24.168551542411       1.172733031250      76.829268000000
      5462    2       26.545783665177       1.172733031250      78.292680000000
      5463    2       25.753372957589       3.518199093750      76.829268000000
      5464    2       28.130608408482       3.518199093750      78.292680000000
      5465    2       28.923019116071       1.172733031250      76.829268000000
      5466    2       31.300254566965       1.172733031250      78.292680000000
      5467    2       30.507843859376       3.518199093750      76.829268000000
      5468    2       32.885075982142       3.518199093750      78.292680000000
      5469    2        0.396205686607       5.863665156250      76.829268000000
      5470    2        2.773440139062       5.863665156250      78.292680000000
      5471    2        1.981028765848       8.209131218750      76.829268000000
      5472    2        4.358263883929       8.209131218750      78.292680000000
      5473    2        5.150674591518       5.863665156250      76.829268000000
      5474    2        7.527910042412       5.863665156250      78.292680000000
      5475    2        6.735499334823       8.209131218750      76.829268000000
      5476    2        9.112731457589       8.209131218750      78.292680000000
      5477    2        9.905142165177       5.863665156250      76.829268000000
      5478    2       12.282377616071       5.863665156250      78.292680000000
      5479    2       11.489966908482       8.209131218750      76.829268000000
      5480    2       13.867202359376       8.209131218750      78.292680000000
      5481    2       14.659613066965       5.863665156250      76.829268000000
      5482    2       17.036848517858       5.863665156250      78.292680000000
      5483    2       16.244434482142       8.209131218750      76.829268000000
      5484    2       18.621669933035       8.209131218750      78.292680000000
      5485    2       19.414080640624       5.863665156250      76.829268000000
      5486    2       21.791316091518       5.863665156250      78.292680000000
      5487    2       20.998905383929       8.209131218750      76.829268000000
      5488    2       23.376140834823       8.209131218750      78.292680000000
      5489    2       24.168551542411       5.863665156250      76.829268000000
      5490    2       26.545783665177       5.863665156250      78.292680000000
      5491    2       25.753372957589       8.209131218750      76.829268000000
      5492    2       28.130608408482       8.209131218750      78.292680000000
      5493    2       28.923019116071       5.863665156250      76.829268000000
      5494    2       31.300254566965       5.863665156250      78.292680000000
      5495    2       30.507843859376       8.209131218750      76.829268000000
      5496    2       32.885075982142       8.209131218750      78.292680000000
      5497    2        0.396205686607      10.554597281250      76.829268000000
      5498    2        2.773440139062      10.554597281250      78.292680000000
      5499    2        1.981028765848      12.900063343750      76.829268000000
      5500    2        4.358263883929      12.900063343750      78.292680000000
      5501    2        5.150674591518      10.554597281250      76.829268000000
      5502    2        7.527910042412      10.554597281250      78.292680000000
      5503    2        6.735499334823      12.900063343750      76.829268000000
      5504    2        9.112731457589      12.900063343750      78.292680000000
      5505    2        9.905142165177      10.554597281250      76.829268000000
      5506    2       12.282377616071      10.554597281250      78.292680000000
      5507    2       11.489966908482      12.900063343750      76.829268000000
      5508    2       13.867202359376      12.900063343750      78.292680000000
      5509    2       14.659613066965      10.554597281250      76.829268000000
      5510    2       17.036848517858      10.554597281250      78.292680000000
      5511    2       16.244434482142      12.900063343750      76.829268000000
      5512    2       18.621669933035      12.900063343750      78.292680000000
      5513    2       19.414080640624      10.554597281250      76.829268000000
      5514    2       21.791316091518      10.554597281250      78.292680000000
      5515    2       20.998905383929      12.900063343750      76.829268000000
      5516    2       23.376140834823      12.900063343750      78.292680000000
      5517    2       24.168551542411      10.554597281250      76.829268000000
      5518    2       26.545783665177      10.554597281250      78.292680000000
      5519    2       25.753372957589      12.900063343750      76.829268000000
      5520    2       28.130608408482      12.900063343750      78.292680000000
      5521    2       28.923019116071      10.554597281250      76.829268000000
      5522    2       31.300254566965      10.554597281250      78.292680000000
      5523    2       30.507843859376      12.900063343750      76.829268000000
      5524    2       32.885075982142      12.900063343750      78.292680000000
      5525    2        0.396205686607      15.245529406250      76.829268000000
      5526    2        2.773440139062      15.245529406250      78.292680000000
      5527    2        1.981028765848      17.590995468750      76.829268000000
      5528    2        4.358263883929      17.590995468750      78.292680000000
      5529    2        5.150674591518      15.245529406250      76.829268000000
      5530    2        7.527910042412      15.245529406250      78.292680000000
      5531    2        6.735499334823      17.590995468750      76.829268000000
      5532    2        9.112731457589      17.590995468750      78.292680000000
      5533    2        9.905142165177      15.245529406250      76.829268000000
      5534    2       12.282377616071      15.245529406250      78.292680000000
      5535    2       11.489966908482      17.590995468750      76.829268000000
      5536    2       13.867202359376      17.590995468750      78.292680000000
      5537    2       14.659613066965      15.245529406250      76.829268000000
      5538    2       17.036848517858      15.245529406250      78.292680000000
      5539    2       16.244434482142      17.590995468750      76.829268000000
      5540    2       18.621669933035      17.590995468750      78.292680000000
      5541    2       19.414080640624      15.245529406250      76.829268000000
      5542    2       21.791316091518      15.245529406250      78.292680000000
      5543    2       20.998905383929      17.590995468750      76.829268000000
      5544    2       23.376140834823      17.590995468750      78.292680000000
      5545    2       24.168551542411      15.245529406250      76.829268000000
      5546    2       26.545783665177      15.245529406250      78.292680000000
      5547    2       25.753372957589      17.590995468750      76.829268000000
      5548    2       28.130608408482      17.590995468750      78.292680000000
      5549    2       28.923019116071      15.245529406250      76.829268000000
      5550    2       31.300254566965      15.245529406250      78.292680000000
      5551    2       30.507843859376      17.590995468750      76.829268000000
      5552    2       32.885075982142      17.590995468750      78.292680000000
      5553    2        0.396205686607      19.936461531250      76.829268000000
      5554    2        2.773440139062      19.936461531250      78.292680000000
      5555    2        1.981028765848      22.281927593750      76.829268000000
      5556    2        4.358263883929      22.281927593750      78.292680000000
      5557    2        5.150674591518      19.936461531250      76.829268000000
      5558    2        7.527910042412      19.936461531250      78.292680000000
      5559    2        6.735499334823      22.281927593750      76.829268000000
      5560    2        9.112731457589      22.281927593750      78.292680000000
      5561    2        9.905142165177      19.936461531250      76.829268000000
      5562    2       12.282377616071      19.936461531250      78.292680000000
      5563    2       11.489966908482      22.281927593750      76.829268000000
      5564    2       13.867202359376      22.281927593750      78.292680000000
      5565    2       14.659613066965      19.936461531250      76.829268000000
      5566    2       17.036848517858      19.936461531250      78.292680000000
      5567    2       16.244434482142      22.281927593750      76.829268000000
      5568    2       18.621669933035      22.281927593750      78.292680000000
      5569    2       19.414080640624      19.936461531250      76.829268000000
      5570    2       21.791316091518      19.936461531250      78.292680000000
      5571    2       20.998905383929      22.281927593750      76.829268000000
      5572    2       23.376140834823      22.281927593750      78.292680000000
      5573    2       24.168551542411      19.936461531250      76.829268000000
      5574    2       26.545783665177      19.936461531250      78.292680000000
      5575    2       25.753372957589      22.281927593750      76.829268000000
      5576    2       28.130608408482      22.281927593750      78.292680000000
      5577    2       28.923019116071      19.936461531250      76.829268000000
      5578    2       31.300254566965      19.936461531250      78.292680000000
      5579    2       30.507843859376      22.281927593750      76.829268000000
      5580    2       32.885075982142      22.281927593750      78.292680000000
      5581    2        0.396205686607      24.627393656250      76.829268000000
      5582    2        2.773440139062      24.627393656250      78.292680000000
      5583    2        1.981028765848      26.972859718750      76.829268000000
      5584    2        4.358263883929      26.972859718750      78.292680000000
      5585    2        5.150674591518      24.627393656250      76.829268000000
      5586    2        7.527910042412      24.627393656250      78.292680000000
      5587    2        6.735499334823      26.972859718750      76.829268000000
      5588    2        9.112731457589      26.972859718750      78.292680000000
      5589    2        9.905142165177      24.627393656250      76.829268000000
      5590    2       12.282377616071      24.627393656250      78.292680000000
      5591    2       11.489966908482      26.972859718750      76.829268000000
      5592    2       13.867202359376      26.972859718750      78.292680000000
      5593    2       14.659613066965      24.627393656250      76.829268000000
      5594    2       17.036848517858      24.627393656250      78.292680000000
      5595    2       16.244434482142      26.972859718750      76.829268000000
      5596    2       18.621669933035      26.972859718750      78.292680000000
      5597    2       19.414080640624      24.627393656250      76.829268000000
      5598    2       21.791316091518      24.627393656250      78.292680000000
      5599    2       20.998905383929      26.972859718750      76.829268000000
      5600    2       23.376140834823      26.972859718750      78.292680000000
      5601    2       24.168551542411      24.627393656250      76.829268000000
      5602    2       26.545783665177      24.627393656250      78.292680000000
      5603    2       25.753372957589      26.972859718750      76.829268000000
      5604    2       28.130608408482      26.972859718750      78.292680000000
      5605    2       28.923019116071      24.627393656250      76.829268000000
      5606    2       31.300254566965      24.627393656250      78.292680000000
      5607    2       30.507843859376      26.972859718750      76.829268000000
      5608    2       32.885075982142      26.972859718750      78.292680000000
      5609    2        0.396205686607      29.318325781250      76.829268000000
      5610    2        2.773440139062      29.318325781250      78.292680000000
      5611    2        1.981028765848      31.663791843750      76.829268000000
      5612    2        4.358263883929      31.663791843750      78.292680000000
      5613    2        5.150674591518      29.318325781250      76.829268000000
      5614    2        7.527910042412      29.318325781250      78.292680000000
      5615    2        6.735499334823      31.663791843750      76.829268000000
      5616    2        9.112731457589      31.663791843750      78.292680000000
      5617    2        9.905142165177      29.318325781250      76.829268000000
      5618    2       12.282377616071      29.318325781250      78.292680000000
      5619    2       11.489966908482      31.663791843750      76.829268000000
      5620    2       13.867202359376      31.663791843750      78.292680000000
      5621    2       14.659613066965      29.318325781250      76.829268000000
      5622    2       17.036848517858      29.318325781250      78.292680000000
      5623    2       16.244434482142      31.663791843750      76.829268000000
      5624    2       18.621669933035      31.663791843750      78.292680000000
      5625    2       19.414080640624      29.318325781250      76.829268000000
      5626    2       21.791316091518      29.318325781250      78.292680000000
      5627    2       20.998905383929      31.663791843750      76.829268000000
      5628    2       23.376140834823      31.663791843750      78.292680000000
      5629    2       24.168551542411      29.318325781250      76.829268000000
      5630    2       26.545783665177      29.318325781250      78.292680000000
      5631    2       25.753372957589      31.663791843750      76.829268000000
      5632    2       28.130608408482      31.663791843750      78.292680000000
      5633    2       28.923019116071      29.318325781250      76.829268000000
      5634    2       31.300254566965      29.318325781250      78.292680000000
      5635    2       30.507843859376      31.663791843750      76.829268000000
      5636    2       32.885075982142      31.663791843750      78.292680000000
      5637    2        0.396205686607      34.009257906250      76.829268000000
      5638    2        2.773440139062      34.009257906250      78.292680000000
      5639    2        1.981028765848      36.354723968750      76.829268000000
      5640    2        4.358263883929      36.354723968750      78.292680000000
      5641    2        5.150674591518      34.009257906250      76.829268000000
      5642    2        7.527910042412      34.009257906250      78.292680000000
      5643    2        6.735499334823      36.354723968750      76.829268000000
      5644    2        9.112731457589      36.354723968750      78.292680000000
      5645    2        9.905142165177      34.009257906250      76.829268000000
      5646    2       12.282377616071      34.009257906250      78.292680000000
      5647    2       11.489966908482      36.354723968750      76.829268000000
      5648    2       13.867202359376      36.354723968750      78.292680000000
      5649    2       14.659613066965      34.009257906250      76.829268000000
      5650    2       17.036848517858      34.009257906250      78.292680000000
      5651    2       16.244434482142      36.354723968750      76.829268000000
      5652    2       18.621669933035      36.354723968750      78.292680000000
      5653    2       19.414080640624      34.009257906250      76.829268000000
      5654    2       21.791316091518      34.009257906250      78.292680000000
      5655    2       20.998905383929      36.354723968750      76.829268000000
      5656    2       23.376140834823      36.354723968750      78.292680000000
      5657    2       24.168551542411      34.009257906250      76.829268000000
      5658    2       26.545783665177      34.009257906250      78.292680000000
      5659    2       25.753372957589      36.354723968750      76.829268000000
      5660    2       28.130608408482      36.354723968750      78.292680000000
      5661    2       28.923019116071      34.009257906250      76.829268000000
      5662    2       31.300254566965      34.009257906250      78.292680000000
      5663    2       30.507843859376      36.354723968750      76.829268000000
      5664    2       32.885075982142      36.354723968750      78.292680000000
      5665    2        0.396205686607       1.172733031250      79.756092000000
      5666    2        2.773440139062       1.172733031250      81.219516000000
      5667    2        1.981028765848       3.518199093750      79.756092000000
      5668    2        4.358263883929       3.518199093750      81.219516000000
      5669    2        5.150674591518       1.172733031250      79.756092000000
      5670    2        7.527910042412       1.172733031250      81.219516000000
      5671    2        6.735499334823       3.518199093750      79.756092000000
      5672    2        9.112731457589       3.518199093750      81.219516000000
      5673    2        9.905142165177       1.172733031250      79.756092000000
      5674    2       12.282377616071       1.172733031250      81.219516000000
      5675    2       11.489966908482       3.518199093750      79.756092000000
      5676    2       13.867202359376       3.518199093750      81.219516000000
      5677    2       14.659613066965       1.172733031250      79.756092000000
      5678    2       17.036848517858       1.172733031250      81.219516000000
      5679    2       16.244434482142       3.518199093750      79.756092000000
      5680    2       18.621669933035       3.518199093750      81.219516000000
      5681    2       19.414080640624       1.172733031250      79.756092000000
      5682    2       21.791316091518       1.172733031250      81.219516000000
      5683    2       20.998905383929       3.518199093750      79.756092000000
      5684    2       23.376140834823       3.518199093750      81.219516000000
      5685    2       24.168551542411       1.172733031250      79.756092000000
      5686    2       26.545783665177       1.172733031250      81.219516000000
      5687    2       25.753372957589       3.518199093750      79.756092000000
      5688    2       28.130608408482       3.518199093750      81.219516000000
      5689    2       28.923019116071       1.172733031250      79.756092000000
      5690    2       31.300254566965       1.172733031250      81.219516000000
      5691    2       30.507843859376       3.518199093750      79.756092000000
      5692    2       32.885075982142       3.518199093750      81.219516000000
      5693    2        0.396205686607       5.863665156250      79.756092000000
      5694    2        2.773440139062       5.863665156250      81.219516000000
      5695    2        1.981028765848       8.209131218750      79.756092000000
      5696    2        4.358263883929       8.209131218750      81.219516000000
      5697    2        5.150674591518       5.863665156250      79.756092000000
      5698    2        7.527910042412       5.863665156250      81.219516000000
      5699    2        6.735499334823       8.209131218750      79.756092000000
      5700    2        9.112731457589       8.209131218750      81.219516000000
      5701    2        9.905142165177       5.863665156250      79.756092000000
      5702    2       12.282377616071       5.863665156250      81.219516000000
      5703    2       11.489966908482       8.209131218750      79.756092000000
      5704    2       13.867202359376       8.209131218750      81.219516000000
      5705    2       14.659613066965       5.863665156250      79.756092000000
      5706    2       17.036848517858       5.863665156250      81.219516000000
      5707    2       16.244434482142       8.209131218750      79.756092000000
      5708    2       18.621669933035       8.209131218750      81.219516000000
      5709    2       19.414080640624       5.863665156250      79.756092000000
      5710    2       21.791316091518       5.863665156250      81.219516000000
      5711    2       20.998905383929       8.209131218750      79.756092000000
      5712    2       23.376140834823       8.209131218750      81.219516000000
      5713    2       24.168551542411       5.863665156250      79.756092000000
      5714    2       26.545783665177       5.863665156250      81.219516000000
      5715    2       25.753372957589       8.209131218750      79.756092000000
      5716    2       28.130608408482       8.209131218750      81.219516000000
      5717    2       28.923019116071       5.863665156250      79.756092000000
      5718    2       31.300254566965       5.863665156250      81.219516000000
      5719    2       30.507843859376       8.209131218750      79.756092000000
      5720    2       32.885075982142       8.209131218750      81.219516000000
      5721    2        0.396205686607      10.554597281250      79.756092000000
      5722    2        2.773440139062      10.554597281250      81.219516000000
      5723    2        1.981028765848      12.900063343750      79.756092000000
      5724    2        4.358263883929      12.900063343750      81.219516000000
      5725    2        5.150674591518      10.554597281250      79.756092000000
      5726    2        7.527910042412      10.554597281250      81.219516000000
      5727    2        6.735499334823      12.900063343750      79.756092000000
      5728    2        9.112731457589      12.900063343750      81.219516000000
      5729    2        9.905142165177      10.554597281250      79.756092000000
      5730    2       12.282377616071      10.554597281250      81.219516000000
      5731    2       11.489966908482      12.900063343750      79.756092000000
      5732    2       13.867202359376      12.900063343750      81.219516000000
      5733    2       14.659613066965      10.554597281250      79.756092000000
      5734    2       17.036848517858      10.554597281250      81.219516000000
      5735    2       16.244434482142      12.900063343750      79.756092000000
      5736    2       18.621669933035      12.900063343750      81.219516000000
      5737    2       19.414080640624      10.554597281250      79.756092000000
      5738    2       21.791316091518      10.554597281250      81.219516000000
      5739    2       20.998905383929      12.900063343750      79.756092000000
      5740    2       23.376140834823      12.900063343750      81.219516000000
      5741    2       24.168551542411      10.554597281250      79.756092000000
      5742    2       26.545783665177      10.554597281250      81.219516000000
      5743    2       25.753372957589      12.900063343750      79.756092000000
      5744    2       28.130608408482      12.900063343750      81.219516000000
      5745    2       28.923019116071      10.554597281250      79.756092000000
      5746    2       31.300254566965      10.554597281250      81.219516000000
      5747    2       30.507843859376      12.900063343750      79.756092000000
      5748    2       32.885075982142      12.900063343750      81.219516000000
      5749    2        0.396205686607      15.245529406250      79.756092000000
      5750    2        2.773440139062      15.245529406250      81.219516000000
      5751    2        1.981028765848      17.590995468750      79.756092000000
      5752    2        4.358263883929      17.590995468750      81.219516000000
      5753    2        5.150674591518      15.245529406250      79.756092000000
      5754    2        7.527910042412      15.245529406250      81.219516000000
      5755    2        6.735499334823      17.590995468750      79.756092000000
      5756    2        9.112731457589      17.590995468750      81.219516000000
      5757    2        9.905142165177      15.245529406250      79.756092000000
      5758    2       12.282377616071      15.245529406250      81.219516000000
      5759    2       11.489966908482      17.590995468750      79.756092000000
      5760    2       13.867202359376      17.590995468750      81.219516000000
      5761    2       14.659613066965      15.245529406250      79.756092000000
      5762    2       17.036848517858      15.245529406250      81.219516000000
      5763    2       16.244434482142      17.590995468750      79.756092000000
      5764    2       18.621669933035      17.590995468750      81.219516000000
      5765    2       19.414080640624      15.245529406250      79.756092000000
      5766    2       21.791316091518      15.245529406250      81.219516000000
      5767    2       20.998905383929      17.590995468750      79.756092000000
      5768    2       23.376140834823      17.590995468750      81.219516000000
      5769    2       24.168551542411      15.245529406250      79.756092000000
      5770    2       26.545783665177      15.245529406250      81.219516000000
      5771    2       25.753372957589      17.590995468750      79.756092000000
      5772    2       28.130608408482      17.590995468750      81.219516000000
      5773    2       28.923019116071      15.245529406250      79.756092000000
      5774    2       31.300254566965      15.245529406250      81.219516000000
      5775    2       30.507843859376      17.590995468750      79.756092000000
      5776    2       32.885075982142      17.590995468750      81.219516000000
      5777    2        0.396205686607      19.936461531250      79.756092000000
      5778    2        2.773440139062      19.936461531250      81.219516000000
      5779    2        1.981028765848      22.281927593750      79.756092000000
      5780    2        4.358263883929      22.281927593750      81.219516000000
      5781    2        5.150674591518      19.936461531250      79.756092000000
      5782    2        7.527910042412      19.936461531250      81.219516000000
      5783    2        6.735499334823      22.281927593750      79.756092000000
      5784    2        9.112731457589      22.281927593750      81.219516000000
      5785    2        9.905142165177      19.936461531250      79.756092000000
      5786    2       12.282377616071      19.936461531250      81.219516000000
      5787    2       11.489966908482      22.281927593750      79.756092000000
      5788    2       13.867202359376      22.281927593750      81.219516000000
      5789    2       14.659613066965      19.936461531250      79.756092000000
      5790    2       17.036848517858      19.936461531250      81.219516000000
      5791    2       16.244434482142      22.281927593750      79.756092000000
      5792    2       18.621669933035      22.281927593750      81.219516000000
      5793    2       19.414080640624      19.936461531250      79.756092000000
      5794    2       21.791316091518      19.936461531250      81.219516000000
      5795    2       20.998905383929      22.281927593750      79.756092000000
      5796    2       23.376140834823      22.281927593750      81.219516000000
      5797    2       24.168551542411      19.936461531250      79.756092000000
      5798    2       26.545783665177      19.936461531250      81.219516000000
      5799    2       25.753372957589      22.281927593750      79.756092000000
      5800    2       28.130608408482      22.281927593750      81.219516000000
      5801    2       28.923019116071      19.936461531250      79.756092000000
      5802    2       31.300254566965      19.936461531250      81.219516000000
      5803    2       30.507843859376      22.281927593750      79.756092000000
      5804    2       32.885075982142      22.281927593750      81.219516000000
      5805    2        0.396205686607      24.627393656250      79.756092000000
      5806    2        2.773440139062      24.627393656250      81.219516000000
      5807    2        1.981028765848      26.972859718750      79.756092000000
      5808    2        4.358263883929      26.972859718750      81.219516000000
      5809    2        5.150674591518      24.627393656250      79.756092000000
      5810    2        7.527910042412      24.627393656250      81.219516000000
      5811    2        6.735499334823      26.972859718750      79.756092000000
      5812    2        9.112731457589      26.972859718750      81.219516000000
      5813    2        9.905142165177      24.627393656250      79.756092000000
      5814    2       12.282377616071      24.627393656250      81.219516000000
      5815    2       11.489966908482      26.972859718750      79.756092000000
      5816    2       13.867202359376      26.972859718750      81.219516000000
      5817    2       14.659613066965      24.627393656250      79.756092000000
      5818    2       17.036848517858      24.627393656250      81.219516000000
      5819    2       16.244434482142      26.972859718750      79.756092000000
      5820    2       18.621669933035      26.972859718750      81.219516000000
      5821    2       19.414080640624      24.627393656250      79.756092000000
      5822    2       21.791316091518      24.627393656250      81.219516000000
      5823    2       20.998905383929      26.972859718750      79.756092000000
      5824    2       23.376140834823      26.972859718750      81.219516000000
      5825    2       24.168551542411      24.627393656250      79.756092000000
      5826    2       26.545783665177      24.627393656250      81.219516000000
      5827    2       25.753372957589      26.972859718750      79.756092000000
      5828    2       28.130608408482      26.972859718750      81.219516000000
      5829    2       28.923019116071      24.627393656250      79.756092000000
      5830    2       31.300254566965      24.627393656250      81.219516000000
      5831    2       30.507843859376      26.972859718750      79.756092000000
      5832    2       32.885075982142      26.972859718750      81.219516000000
      5833    2        0.396205686607      29.318325781250      79.756092000000
      5834    2        2.773440139062      29.318325781250      81.219516000000
      5835    2        1.981028765848      31.663791843750      79.756092000000
      5836    2        4.358263883929      31.663791843750      81.219516000000
      5837    2        5.150674591518      29.318325781250      79.756092000000
      5838    2        7.527910042412      29.318325781250      81.219516000000
      5839    2        6.735499334823      31.663791843750      79.756092000000
      5840    2        9.112731457589      31.663791843750      81.219516000000
      5841    2        9.905142165177      29.318325781250      79.756092000000
      5842    2       12.282377616071      29.318325781250      81.219516000000
      5843    2       11.489966908482      31.663791843750      79.756092000000
      5844    2       13.867202359376      31.663791843750      81.219516000000
      5845    2       14.659613066965      29.318325781250      79.756092000000
      5846    2       17.036848517858      29.318325781250      81.219516000000
      5847    2       16.244434482142      31.663791843750      79.756092000000
      5848    2       18.621669933035      31.663791843750      81.219516000000
      5849    2       19.414080640624      29.318325781250      79.756092000000
      5850    2       21.791316091518      29.318325781250      81.219516000000
      5851    2       20.998905383929      31.663791843750      79.756092000000
      5852    2       23.376140834823      31.663791843750      81.219516000000
      5853    2       24.168551542411      29.318325781250      79.756092000000
      5854    2       26.545783665177      29.318325781250      81.219516000000
      5855    2       25.753372957589      31.663791843750      79.756092000000
      5856    2       28.130608408482      31.663791843750      81.219516000000
      5857    2       28.923019116071      29.318325781250      79.756092000000
      5858    2       31.300254566965      29.318325781250      81.219516000000
      5859    2       30.507843859376      31.663791843750      79.756092000000
      5860    2       32.885075982142      31.663791843750      81.219516000000
      5861    2        0.396205686607      34.009257906250      79.756092000000
      5862    2        2.773440139062      34.009257906250      81.219516000000
      5863    2        1.981028765848      36.354723968750      79.756092000000
      5864    2        4.358263883929      36.354723968750      81.219516000000
      5865    2        5.150674591518      34.009257906250      79.756092000000
      5866    2        7.527910042412      34.009257906250      81.219516000000
      5867    2        6.735499334823      36.354723968750      79.756092000000
      5868    2        9.112731457589      36.354723968750      81.219516000000
      5869    2        9.905142165177      34.009257906250      79.756092000000
      5870    2       12.282377616071      34.009257906250      81.219516000000
      5871    2       11.489966908482      36.354723968750      79.756092000000
      5872    2       13.867202359376      36.354723968750      81.219516000000
      5873    2       14.659613066965      34.009257906250      79.756092000000
      5874    2       17.036848517858      34.009257906250      81.219516000000
      5875    2       16.244434482142      36.354723968750      79.756092000000
      5876    2       18.621669933035      36.354723968750      81.219516000000
      5877    2       19.414080640624      34.009257906250      79.756092000000
      5878    2       21.791316091518      34.009257906250      81.219516000000
      5879    2       20.998905383929      36.354723968750      79.756092000000
      5880    2       23.376140834823      36.354723968750      81.219516000000
      5881    2       24.168551542411      34.009257906250      79.756092000000
      5882    2       26.545783665177      34.009257906250      81.219516000000
      5883    2       25.753372957589      36.354723968750      79.756092000000
      5884    2       28.130608408482      36.354723968750      81.219516000000
      5885    2       28.923019116071      34.009257906250      79.756092000000
      5886    2       31.300254566965      34.009257906250      81.219516000000
      5887    2       30.507843859376      36.354723968750      79.756092000000
      5888    2       32.885075982142      36.354723968750      81.219516000000
      5889    2        0.396205686607       1.172733031250      82.682928000000
      5890    2        2.773440139062       1.172733031250      84.146340000000
      5891    2        1.981028765848       3.518199093750      82.682928000000
      5892    2        4.358263883929       3.518199093750      84.146340000000
      5893    2        5.150674591518       1.172733031250      82.682928000000
      5894    2        7.527910042412       1.172733031250      84.146340000000
      5895    2        6.735499334823       3.518199093750      82.682928000000
      5896    2        9.112731457589       3.518199093750      84.146340000000
      5897    2        9.905142165177       1.172733031250      82.682928000000
      5898    2       12.282377616071       1.172733031250      84.146340000000
      5899    2       11.489966908482       3.518199093750      82.682928000000
      5900    2       13.867202359376       3.518199093750      84.146340000000
      5901    2       14.659613066965       1.172733031250      82.682928000000
      5902    2       17.036848517858       1.172733031250      84.146340000000
      5903    2       16.244434482142       3.518199093750      82.682928000000
      5904    2       18.621669933035       3.518199093750      84.146340000000
      5905    2       19.414080640624       1.172733031250      82.682928000000
      5906    2       21.791316091518       1.172733031250      84.146340000000
      5907    2       20.998905383929       3.518199093750      82.682928000000
      5908    2       23.376140834823       3.518199093750      84.146340000000
      5909    2       24.168551542411       1.172733031250      82.682928000000
      5910    2       26.545783665177       1.172733031250      84.146340000000
      5911    2       25.753372957589       3.518199093750      82.682928000000
      5912    2       28.130608408482       3.518199093750      84.146340000000
      5913    2       28.923019116071       1.172733031250      82.682928000000
      5914    2       31.300254566965       1.172733031250      84.146340000000
      5915    2       30.507843859376       3.518199093750      82.682928000000
      5916    2       32.885075982142       3.518199093750      84.146340000000
      5917    2        0.396205686607       5.863665156250      82.682928000000
      5918    2        2.773440139062       5.863665156250      84.146340000000
      5919    2        1.981028765848       8.209131218750      82.682928000000
      5920    2        4.358263883929       8.209131218750      84.146340000000
      5921    2        5.150674591518       5.863665156250      82.682928000000
      5922    2        7.527910042412       5.863665156250      84.146340000000
      5923    2        6.735499334823       8.209131218750      82.682928000000
      5924    2        9.112731457589       8.209131218750      84.146340000000
      5925    2        9.905142165177       5.863665156250      82.682928000000
      5926    2       12.282377616071       5.863665156250      84.146340000000
      5927    2       11.489966908482       8.209131218750      82.682928000000
      5928    2       13.867202359376       8.209131218750      84.146340000000
      5929    2       14.659613066965       5.863665156250      82.682928000000
      5930    2       17.036848517858       5.863665156250      84.146340000000
      5931    2       16.244434482142       8.209131218750      82.682928000000
      5932    2       18.621669933035       8.209131218750      84.146340000000
      5933    2       19.414080640624       5.863665156250      82.682928000000
      5934    2       21.791316091518       5.863665156250      84.146340000000
      5935    2       20.998905383929       8.209131218750      82.682928000000
      5936    2       23.376140834823       8.209131218750      84.146340000000
      5937    2       24.168551542411       5.863665156250      82.682928000000
      5938    2       26.545783665177       5.863665156250      84.146340000000
      5939    2       25.753372957589       8.209131218750      82.682928000000
      5940    2       28.130608408482       8.209131218750      84.146340000000
      5941    2       28.923019116071       5.863665156250      82.682928000000
      5942    2       31.300254566965       5.863665156250      84.146340000000
      5943    2       30.507843859376       8.209131218750      82.682928000000
      5944    2       32.885075982142       8.209131218750      84.146340000000
      5945    2        0.396205686607      10.554597281250      82.682928000000
      5946    2        2.773440139062      10.554597281250      84.146340000000
      5947    2        1.981028765848      12.900063343750      82.682928000000
      5948    2        4.358263883929      12.900063343750      84.146340000000
      5949    2        5.150674591518      10.554597281250      82.682928000000
      5950    2        7.527910042412      10.554597281250      84.146340000000
      5951    2        6.735499334823      12.900063343750      82.682928000000
      5952    2        9.112731457589      12.900063343750      84.146340000000
      5953    2        9.905142165177      10.554597281250      82.682928000000
      5954    2       12.282377616071      10.554597281250      84.146340000000
      5955    2       11.489966908482      12.900063343750      82.682928000000
      5956    2       13.867202359376      12.900063343750      84.146340000000
      5957    2       14.659613066965      10.554597281250      82.682928000000
      5958    2       17.036848517858      10.554597281250      84.146340000000
      5959    2       16.244434482142      12.900063343750      82.682928000000
      5960    2       18.621669933035      12.900063343750      84.146340000000
      5961    2       19.414080640624      10.554597281250      82.682928000000
      5962    2       21.791316091518      10.554597281250      84.146340000000
      5963    2       20.998905383929      12.900063343750      82.682928000000
      5964    2       23.376140834823      12.900063343750      84.146340000000
      5965    2       24.168551542411      10.554597281250      82.682928000000
      5966    2       26.545783665177      10.554597281250      84.146340000000
      5967    2       25.753372957589      12.900063343750      82.682928000000
      5968    2       28.130608408482      12.900063343750      84.146340000000
      5969    2       28.923019116071      10.554597281250      82.682928000000
      5970    2       31.300254566965      10.554597281250      84.146340000000
      5971    2       30.507843859376      12.900063343750      82.682928000000
      5972    2       32.885075982142      12.900063343750      84.146340000000
      5973    2        0.396205686607      15.245529406250      82.682928000000
      5974    2        2.773440139062      15.245529406250      84.146340000000
      5975    2        1.981028765848      17.590995468750      82.682928000000
      5976    2        4.358263883929      17.590995468750      84.146340000000
      5977    2        5.150674591518      15.245529406250      82.682928000000
      5978    2        7.527910042412      15.245529406250      84.146340000000
      5979    2        6.735499334823      17.590995468750      82.682928000000
      5980    2        9.112731457589      17.590995468750      84.146340000000
      5981    2        9.905142165177      15.245529406250      82.682928000000
      5982    2       12.282377616071      15.245529406250      84.146340000000
      5983    2       11.489966908482      17.590995468750      82.682928000000
      5984    2       13.867202359376      17.590995468750      84.146340000000
      5985    2       14.659613066965      15.245529406250      82.682928000000
      5986    2       17.036848517858      15.245529406250      84.146340000000
      5987    2       16.244434482142      17.590995468750      82.682928000000
      5988    2       18.621669933035      17.590995468750      84.146340000000
      5989    2       19.414080640624      15.245529406250      82.682928000000
      5990    2       21.791316091518      15.245529406250      84.146340000000
      5991    2       20.998905383929      17.590995468750      82.682928000000
      5992    2       23.376140834823      17.590995468750      84.146340000000
      5993    2       24.168551542411      15.245529406250      82.682928000000
      5994    2       26.545783665177      15.245529406250      84.146340000000
      5995    2       25.753372957589      17.590995468750      82.682928000000
      5996    2       28.130608408482      17.590995468750      84.146340000000
      5997    2       28.923019116071      15.245529406250      82.682928000000
      5998    2       31.300254566965      15.245529406250      84.146340000000
      5999    2       30.507843859376      17.590995468750      82.682928000000
      6000    2       32.885075982142      17.590995468750      84.146340000000
      6001    2        0.396205686607      19.936461531250      82.682928000000
      6002    2        2.773440139062      19.936461531250      84.146340000000
      6003    2        1.981028765848      22.281927593750      82.682928000000
      6004    2        4.358263883929      22.281927593750      84.146340000000
      6005    2        5.150674591518      19.936461531250      82.682928000000
      6006    2        7.527910042412      19.936461531250      84.146340000000
      6007    2        6.735499334823      22.281927593750      82.682928000000
      6008    2        9.112731457589      22.281927593750      84.146340000000
      6009    2        9.905142165177      19.936461531250      82.682928000000
      6010    2       12.282377616071      19.936461531250      84.146340000000
      6011    2       11.489966908482      22.281927593750      82.682928000000
      6012    2       13.867202359376      22.281927593750      84.146340000000
      6013    2       14.659613066965      19.936461531250      82.682928000000
      6014    2       17.036848517858      19.936461531250      84.146340000000
      6015    2       16.244434482142      22.281927593750      82.682928000000
      6016    2       18.621669933035      22.281927593750      84.146340000000
      6017    2       19.414080640624      19.936461531250      82.682928000000
      6018    2       21.791316091518      19.936461531250      84.146340000000
      6019    2       20.998905383929      22.281927593750      82.682928000000
      6020    2       23.376140834823      22.281927593750      84.146340000000
      6021    2       24.168551542411      19.936461531250      82.682928000000
      6022    2       26.545783665177      19.936461531250      84.146340000000
      6023    2       25.753372957589      22.281927593750      82.682928000000
      6024    2       28.130608408482      22.281927593750      84.146340000000
      6025    2       28.923019116071      19.936461531250      82.682928000000
      6026    2       31.300254566965      19.936461531250      84.146340000000
      6027    2       30.507843859376      22.281927593750      82.682928000000
      6028    2       32.885075982142      22.281927593750      84.146340000000
      6029    2        0.396205686607      24.627393656250      82.682928000000
      6030    2        2.773440139062      24.627393656250      84.146340000000
      6031    2        1.981028765848      26.972859718750      82.682928000000
      6032    2        4.358263883929      26.972859718750      84.146340000000
      6033    2        5.150674591518      24.627393656250      82.682928000000
      6034    2        7.527910042412      24.627393656250      84.146340000000
      6035    2        6.735499334823      26.972859718750      82.682928000000
      6036    2        9.112731457589      26.972859718750      84.146340000000
      6037    2        9.905142165177      24.627393656250      82.682928000000
      6038    2       12.282377616071      24.627393656250      84.146340000000
      6039    2       11.489966908482      26.972859718750      82.682928000000
      6040    2       13.867202359376      26.972859718750      84.146340000000
      6041    2       14.659613066965      24.627393656250      82.682928000000
      6042    2       17.036848517858      24.627393656250      84.146340000000
      6043    2       16.244434482142      26.972859718750      82.682928000000
      6044    2       18.621669933035      26.972859718750      84.146340000000
      6045    2       19.414080640624      24.627393656250      82.682928000000
      6046    2       21.791316091518      24.627393656250      84.146340000000
      6047    2       20.998905383929      26.972859718750      82.682928000000
      6048    2       23.376140834823      26.972859718750      84.146340000000
      6049    2       24.168551542411      24.627393656250      82.682928000000
      6050    2       26.545783665177      24.627393656250      84.146340000000
      6051    2       25.753372957589      26.972859718750      82.682928000000
      6052    2       28.130608408482      26.972859718750      84.146340000000
      6053    2       28.923019116071      24.627393656250      82.682928000000
      6054    2       31.300254566965      24.627393656250      84.146340000000
      6055    2       30.507843859376      26.972859718750      82.682928000000
      6056    2       32.885075982142      26.972859718750      84.146340000000
      6057    2        0.396205686607      29.318325781250      82.682928000000
      6058    2        2.773440139062      29.318325781250      84.146340000000
      6059    2        1.981028765848      31.663791843750      82.682928000000
      6060    2        4.358263883929      31.663791843750      84.146340000000
      6061    2        5.150674591518      29.318325781250      82.682928000000
      6062    2        7.527910042412      29.318325781250      84.146340000000
      6063    2        6.735499334823      31.663791843750      82.682928000000
      6064    2        9.112731457589      31.663791843750      84.146340000000
      6065    2        9.905142165177      29.318325781250      82.682928000000
      6066    2       12.282377616071      29.318325781250      84.146340000000
      6067    2       11.489966908482      31.663791843750      82.682928000000
      6068    2       13.867202359376      31.663791843750      84.146340000000
      6069    2       14.659613066965      29.318325781250      82.682928000000
      6070    2       17.036848517858      29.318325781250      84.146340000000
      6071    2       16.244434482142      31.663791843750      82.682928000000
      6072    2       18.621669933035      31.663791843750      84.146340000000
      6073    2       19.414080640624      29.318325781250      82.682928000000
      6074    2       21.791316091518      29.318325781250      84.146340000000
      6075    2       20.998905383929      31.663791843750      82.682928000000
      6076    2       23.376140834823      31.663791843750      84.146340000000
      6077    2       24.168551542411      29.318325781250      82.682928000000
      6078    2       26.545783665177      29.318325781250      84.146340000000
      6079    2       25.753372957589      31.663791843750      82.682928000000
      6080    2       28.130608408482      31.663791843750      84.146340000000
      6081    2       28.923019116071      29.318325781250      82.682928000000
      6082    2       31.300254566965      29.318325781250      84.146340000000
      6083    2       30.507843859376      31.663791843750      82.682928000000
      6084    2       32.885075982142      31.663791843750      84.146340000000
      6085    2        0.396205686607      34.009257906250      82.682928000000
      6086    2        2.773440139062      34.009257906250      84.146340000000
      6087    2        1.981028765848      36.354723968750      82.682928000000
      6088    2        4.358263883929      36.354723968750      84.146340000000
      6089    2        5.150674591518      34.009257906250      82.682928000000
      6090    2        7.527910042412      34.009257906250      84.146340000000
      6091    2        6.735499334823      36.354723968750      82.682928000000
      6092    2        9.112731457589      36.354723968750      84.146340000000
      6093    2        9.905142165177      34.009257906250      82.682928000000
      6094    2       12.282377616071      34.009257906250      84.146340000000
      6095    2       11.489966908482      36.354723968750      82.682928000000
      6096    2       13.867202359376      36.354723968750      84.146340000000
      6097    2       14.659613066965      34.009257906250      82.682928000000
      6098    2       17.036848517858      34.009257906250      84.146340000000
      6099    2       16.244434482142      36.354723968750      82.682928000000
      6100    2       18.621669933035      36.354723968750      84.146340000000
      6101    2       19.414080640624      34.009257906250      82.682928000000
      6102    2       21.791316091518      34.009257906250      84.146340000000
      6103    2       20.998905383929      36.354723968750      82.682928000000
      6104    2       23.376140834823      36.354723968750      84.146340000000
      6105    2       24.168551542411      34.009257906250      82.682928000000
      6106    2       26.545783665177      34.009257906250      84.146340000000
      6107    2       25.753372957589      36.354723968750      82.682928000000
      6108    2       28.130608408482      36.354723968750      84.146340000000
      6109    2       28.923019116071      34.009257906250      82.682928000000
      6110    2       31.300254566965      34.009257906250      84.146340000000
      6111    2       30.507843859376      36.354723968750      82.682928000000
      6112    2       32.885075982142      36.354723968750      84.146340000000
      6113    2        4.522430468583       3.518199093750      85.365852000000
      6114    2        5.909148374831       1.172733031250      87.317076000000
      6115    2        0.362269760770       1.172733031250      85.365852000000
      6116    2        1.748989663895       3.518199093750      87.317076000000
      6117    1        7.295869609207       3.518199093750      86.341464000000
      6118    1        3.135709899833       1.172733031250      86.341464000000
      6119    2       12.842751218583       3.518199093750      85.365852000000
      6120    2       14.229469124831       1.172733031250      87.317076000000
      6121    2        8.682590843583       1.172733031250      85.365852000000
      6122    2       10.069312077959       3.518199093750      87.317076000000
      6123    1       15.616190359207       3.518199093750      86.341464000000
      6124    1       11.456029984207       1.172733031250      86.341464000000
      6125    2       21.163071968583       3.518199093750      85.365852000000
      6126    2       22.549793202959       1.172733031250      87.317076000000
      6127    2       17.002911593583       1.172733031250      85.365852000000
      6128    2       18.389629499831       3.518199093750      87.317076000000
      6129    1       23.936511109207       3.518199093750      86.341464000000
      6130    1       19.776350734207       1.172733031250      86.341464000000
      6131    2       29.483392718583       3.518199093750      85.365852000000
      6132    2       30.870110624831       1.172733031250      87.317076000000
      6133    2       25.323232343583       1.172733031250      85.365852000000
      6134    2       26.709950249831       3.518199093750      87.317076000000
      6135    1       32.256831859207       3.518199093750      86.341464000000
      6136    1       28.096671484207       1.172733031250      86.341464000000
      6137    2        4.522430468583       8.209131218750      85.365852000000
      6138    2        5.909148374831       5.863665156250      87.317076000000
      6139    2        0.362269760770       5.863665156250      85.365852000000
      6140    2        1.748989663895       8.209131218750      87.317076000000
      6141    1        7.295869609207       8.209131218750      86.341464000000
      6142    1        3.135709899833       5.863665156250      86.341464000000
      6143    2       12.842751218583       8.209131218750      85.365852000000
      6144    2       14.229469124831       5.863665156250      87.317076000000
      6145    2        8.682590843583       5.863665156250      85.365852000000
      6146    2       10.069312077959       8.209131218750      87.317076000000
      6147    1       15.616190359207       8.209131218750      86.341464000000
      6148    1       11.456029984207       5.863665156250      86.341464000000
      6149    2       21.163071968583       8.209131218750      85.365852000000
      6150    2       22.549793202959       5.863665156250      87.317076000000
      6151    2       17.002911593583       5.863665156250      85.365852000000
      6152    2       18.389629499831       8.209131218750      87.317076000000
      6153    1       23.936511109207       8.209131218750      86.341464000000
      6154    1       19.776350734207       5.863665156250      86.341464000000
      6155    2       29.483392718583       8.209131218750      85.365852000000
      6156    2       30.870110624831       5.863665156250      87.317076000000
      6157    2       25.323232343583       5.863665156250      85.365852000000
      6158    2       26.709950249831       8.209131218750      87.317076000000
      6159    1       32.256831859207       8.209131218750      86.341464000000
      6160    1       28.096671484207       5.863665156250      86.341464000000
      6161    2        4.522430468583      12.900063343750      85.365852000000
      6162    2        5.909148374831      10.554597281250      87.317076000000
      6163    2        0.362269760770      10.554597281250      85.365852000000
      6164    2        1.748989663895      12.900063343750      87.317076000000
      6165    1        7.295869609207      12.900063343750      86.341464000000
      6166    1        3.135709899833      10.554597281250      86.341464000000
      6167    2       12.842751218583      12.900063343750      85.365852000000
      6168    2       14.229469124831      10.554597281250      87.317076000000
      6169    2        8.682590843583      10.554597281250      85.365852000000
      6170    2       10.069312077959      12.900063343750      87.317076000000
      6171    1       15.616190359207      12.900063343750      86.341464000000
      6172    1       11.456029984207      10.554597281250      86.341464000000
      6173    2       21.163071968583      12.900063343750      85.365852000000
      6174    2       22.549793202959      10.554597281250      87.317076000000
      6175    2       17.002911593583      10.554597281250      85.365852000000
      6176    2       18.389629499831      12.900063343750      87.317076000000
      6177    1       23.936511109207      12.900063343750      86.341464000000
      6178    1       19.776350734207      10.554597281250      86.341464000000
      6179    2       29.483392718583      12.900063343750      85.365852000000
      6180    2       30.870110624831      10.554597281250      87.317076000000
      6181    2       25.323232343583      10.554597281250      85.365852000000
      6182    2       26.709950249831      12.900063343750      87.317076000000
      6183    1       32.256831859207      12.900063343750      86.341464000000
      6184    1       28.096671484207      10.554597281250      86.341464000000
      6185    2        4.522430468583      17.590995468750      85.365852000000
      6186    2        5.909148374831      15.245529406250      87.317076000000
      6187    2        0.362269760770      15.245529406250      85.365852000000
      6188    2        1.748989663895      17.590995468750      87.317076000000
      6189    1        7.295869609207      17.590995468750      86.341464000000
      6190    1        3.135709899833      15.245529406250      86.341464000000
      6191    2       12.842751218583      17.590995468750      85.365852000000
      6192    2       14.229469124831      15.245529406250      87.317076000000
      6193    2        8.682590843583      15.245529406250      85.365852000000
      6194    2       10.069312077959      17.590995468750      87.317076000000
      6195    1       15.616190359207      17.590995468750      86.341464000000
      6196    1       11.456029984207      15.245529406250      86.341464000000
      6197    2       21.163071968583      17.590995468750      85.365852000000
      6198    2       22.549793202959      15.245529406250      87.317076000000
      6199    2       17.002911593583      15.245529406250      85.365852000000
      6200    2       18.389629499831      17.590995468750      87.317076000000
      6201    1       23.936511109207      17.590995468750      86.341464000000
      6202    1       19.776350734207      15.245529406250      86.341464000000
      6203    2       29.483392718583      17.590995468750      85.365852000000
      6204    2       30.870110624831      15.245529406250      87.317076000000
      6205    2       25.323232343583      15.245529406250      85.365852000000
      6206    2       26.709950249831      17.590995468750      87.317076000000
      6207    1       32.256831859207      17.590995468750      86.341464000000
      6208    1       28.096671484207      15.245529406250      86.341464000000
      6209    2        4.522430468583      22.281927593750      85.365852000000
      6210    2        5.909148374831      19.936461531250      87.317076000000
      6211    2        0.362269760770      19.936461531250      85.365852000000
      6212    2        1.748989663895      22.281927593750      87.317076000000
      6213    1        7.295869609207      22.281927593750      86.341464000000
      6214    1        3.135709899833      19.936461531250      86.341464000000
      6215    2       12.842751218583      22.281927593750      85.365852000000
      6216    2       14.229469124831      19.936461531250      87.317076000000
      6217    2        8.682590843583      19.936461531250      85.365852000000
      6218    2       10.069312077959      22.281927593750      87.317076000000
      6219    1       15.616190359207      22.281927593750      86.341464000000
      6220    1       11.456029984207      19.936461531250      86.341464000000
      6221    2       21.163071968583      22.281927593750      85.365852000000
      6222    2       22.549793202959      19.936461531250      87.317076000000
      6223    2       17.002911593583      19.936461531250      85.365852000000
      6224    2       18.389629499831      22.281927593750      87.317076000000
      6225    1       23.936511109207      22.281927593750      86.341464000000
      6226    1       19.776350734207      19.936461531250      86.341464000000
      6227    2       29.483392718583      22.281927593750      85.365852000000
      6228    2       30.870110624831      19.936461531250      87.317076000000
      6229    2       25.323232343583      19.936461531250      85.365852000000
      6230    2       26.709950249831      22.281927593750      87.317076000000
      6231    1       32.256831859207      22.281927593750      86.341464000000
      6232    1       28.096671484207      19.936461531250      86.341464000000
      6233    2        4.522430468583      26.972859718750      85.365852000000
      6234    2        5.909148374831      24.627393656250      87.317076000000
      6235    2        0.362269760770      24.627393656250      85.365852000000
      6236    2        1.748989663895      26.972859718750      87.317076000000
      6237    1        7.295869609207      26.972859718750      86.341464000000
      6238    1        3.135709899833      24.627393656250      86.341464000000
      6239    2       12.842751218583      26.972859718750      85.365852000000
      6240    2       14.229469124831      24.627393656250      87.317076000000
      6241    2        8.682590843583      24.627393656250      85.365852000000
      6242    2       10.069312077959      26.972859718750      87.317076000000
      6243    1       15.616190359207      26.972859718750      86.341464000000
      6244    1       11.456029984207      24.627393656250      86.341464000000
      6245    2       21.163071968583      26.972859718750      85.365852000000
      6246    2       22.549793202959      24.627393656250      87.317076000000
      6247    2       17.002911593583      24.627393656250      85.365852000000
      6248    2       18.389629499831      26.972859718750      87.317076000000
      6249    1       23.936511109207      26.972859718750      86.341464000000
      6250    1       19.776350734207      24.627393656250      86.341464000000
      6251    2       29.483392718583      26.972859718750      85.365852000000
      6252    2       30.870110624831      24.627393656250      87.317076000000
      6253    2       25.323232343583      24.627393656250      85.365852000000
      6254    2       26.709950249831      26.972859718750      87.317076000000
      6255    1       32.256831859207      26.972859718750      86.341464000000
      6256    1       28.096671484207      24.627393656250      86.341464000000
      6257    2        4.522430468583      31.663791843750      85.365852000000
      6258    2        5.909148374831      29.318325781250      87.317076000000
      6259    2        0.362269760770      29.318325781250      85.365852000000
      6260    2        1.748989663895      31.663791843750      87.317076000000
      6261    1        7.295869609207      31.663791843750      86.341464000000
      6262    1        3.135709899833      29.318325781250      86.341464000000
      6263    2       12.842751218583      31.663791843750      85.365852000000
      6264    2       14.229469124831      29.318325781250      87.317076000000
      6265    2        8.682590843583      29.318325781250      85.365852000000
      6266    2       10.069312077959      31.663791843750      87.317076000000
      6267    1       15.616190359207      31.663791843750      86.341464000000
      6268    1       11.456029984207      29.318325781250      86.341464000000
      6269    2       21.163071968583      31.663791843750      85.365852000000
      6270    2       22.549793202959      29.318325781250      87.317076000000
      6271    2       17.002911593583      29.318325781250      85.365852000000
      6272    2       18.389629499831      31.663791843750      87.317076000000
      6273    1       23.936511109207      31.663791843750      86.341464000000
      6274    1       19.776350734207      29.318325781250      86.341464000000
      6275    2       29.483392718583      31.663791843750      85.365852000000
      6276    2       30.870110624831      29.318325781250      87.317076000000
      6277    2       25.323232343583      29.318325781250      85.365852000000
      6278    2       26.709950249831      31.663791843750      87.317076000000
      6279    1       32.256831859207      31.663791843750      86.341464000000
      6280    1       28.096671484207      29.318325781250      86.341464000000
      6281    2        4.522430468583      36.354723968750      85.365852000000
      6282    2        5.909148374831      34.009257906250      87.317076000000
      6283    2        0.362269760770      34.009257906250      85.365852000000
      6284    2        1.748989663895      36.354723968750      87.317076000000
      6285    1        7.295869609207      36.354723968750      86.341464000000
      6286    1        3.135709899833      34.009257906250      86.341464000000
      6287    2       12.842751218583      36.354723968750      85.365852000000
      6288    2       14.229469124831      34.009257906250      87.317076000000
      6289    2        8.682590843583      34.009257906250      85.365852000000
      6290    2       10.069312077959      36.354723968750      87.317076000000
      6291    1       15.616190359207      36.354723968750      86.341464000000
      6292    1       11.456029984207      34.009257906250      86.341464000000
      6293    2       21.163071968583      36.354723968750      85.365852000000
      6294    2       22.549793202959      34.009257906250      87.317076000000
      6295    2       17.002911593583      34.009257906250      85.365852000000
      6296    2       18.389629499831      36.354723968750      87.317076000000
      6297    1       23.936511109207      36.354723968750      86.341464000000
      6298    1       19.776350734207      34.009257906250      86.341464000000
      6299    2       29.483392718583      36.354723968750      85.365852000000
      6300    2       30.870110624831      34.009257906250      87.317076000000
      6301    2       25.323232343583      34.009257906250      85.365852000000
      6302    2       26.709950249831      36.354723968750      87.317076000000
      6303    1       32.256831859207      36.354723968750      86.341464000000
      6304    1       28.096671484207      34.009257906250      86.341464000000
      6305    2        4.522430468583       3.518199093750      88.292688000000
      6306    2        5.909148374831       1.172733031250      90.243900000000
      6307    2        0.362269760770       1.172733031250      88.292688000000
      6308    2        1.748989663895       3.518199093750      90.243900000000
      6309    1        7.295869609207       3.518199093750      89.268288000000
      6310    1        3.135709899833       1.172733031250      89.268288000000
      6311    2       12.842751218583       3.518199093750      88.292688000000
      6312    2       14.229469124831       1.172733031250      90.243900000000
      6313    2        8.682590843583       1.172733031250      88.292688000000
      6314    2       10.069312077959       3.518199093750      90.243900000000
      6315    1       15.616190359207       3.518199093750      89.268288000000
      6316    1       11.456029984207       1.172733031250      89.268288000000
      6317    2       21.163071968583       3.518199093750      88.292688000000
      6318    2       22.549793202959       1.172733031250      90.243900000000
      6319    2       17.002911593583       1.172733031250      88.292688000000
      6320    2       18.389629499831       3.518199093750      90.243900000000
      6321    1       23.936511109207       3.518199093750      89.268288000000
      6322    1       19.776350734207       1.172733031250      89.268288000000
      6323    2       29.483392718583       3.518199093750      88.292688000000
      6324    2       30.870110624831       1.172733031250      90.243900000000
      6325    2       25.323232343583       1.172733031250      88.292688000000
      6326    2       26.709950249831       3.518199093750      90.243900000000
      6327    1       32.256831859207       3.518199093750      89.268288000000
      6328    1       28.096671484207       1.172733031250      89.268288000000
      6329    2        4.522430468583       8.209131218750      88.292688000000
      6330    2        5.909148374831       5.863665156250      90.243900000000
      6331    2        0.362269760770       5.863665156250      88.292688000000
      6332    2        1.748989663895       8.209131218750      90.243900000000
      6333    1        7.295869609207       8.209131218750      89.268288000000
      6334    1        3.135709899833       5.863665156250      89.268288000000
      6335    2       12.842751218583       8.209131218750      88.292688000000
      6336    2       14.229469124831       5.863665156250      90.243900000000
      6337    2        8.682590843583       5.863665156250      88.292688000000
      6338    2       10.069312077959       8.209131218750      90.243900000000
      6339    1       15.616190359207       8.209131218750      89.268288000000
      6340    1       11.456029984207       5.863665156250      89.268288000000
      6341    2       21.163071968583       8.209131218750      88.292688000000
      6342    2       22.549793202959       5.863665156250      90.243900000000
      6343    2       17.002911593583       5.863665156250      88.292688000000
      6344    2       18.389629499831       8.209131218750      90.243900000000
      6345    1       23.936511109207       8.209131218750      89.268288000000
      6346    1       19.776350734207       5.863665156250      89.268288000000
      6347    2       29.483392718583       8.209131218750      88.292688000000
      6348    2       30.870110624831       5.863665156250      90.243900000000
      6349    2       25.323232343583       5.863665156250      88.292688000000
      6350    2       26.709950249831       8.209131218750      90.243900000000
      6351    1       32.256831859207       8.209131218750      89.268288000000
      6352    1       28.096671484207       5.863665156250      89.268288000000
      6353    2        4.522430468583      12.900063343750      88.292688000000
      6354    2        5.909148374831      10.554597281250      90.243900000000
      6355    2        0.362269760770      10.554597281250      88.292688000000
      6356    2        1.748989663895      12.900063343750      90.243900000000
      6357    1        7.295869609207      12.900063343750      89.268288000000
      6358    1        3.135709899833      10.554597281250      89.268288000000
      6359    2       12.842751218583      12.900063343750      88.292688000000
      6360    2       14.229469124831      10.554597281250      90.243900000000
      6361    2        8.682590843583      10.554597281250      88.292688000000
      6362    2       10.069312077959      12.900063343750      90.243900000000
      6363    1       15.616190359207      12.900063343750      89.268288000000
      6364    1       11.456029984207      10.554597281250      89.268288000000
      6365    2       21.163071968583      12.900063343750      88.292688000000
      6366    2       22.549793202959      10.554597281250      90.243900000000
      6367    2       17.002911593583      10.554597281250      88.292688000000
      6368    2       18.389629499831      12.900063343750      90.243900000000
      6369    1       23.936511109207      12.900063343750      89.268288000000
      6370    1       19.776350734207      10.554597281250      89.268288000000
      6371    2       29.483392718583      12.900063343750      88.292688000000
      6372    2       30.870110624831      10.554597281250      90.243900000000
      6373    2       25.323232343583      10.554597281250      88.292688000000
      6374    2       26.709950249831      12.900063343750      90.243900000000
      6375    1       32.256831859207      12.900063343750      89.268288000000
      6376    1       28.096671484207      10.554597281250      89.268288000000
      6377    2        4.522430468583      17.590995468750      88.292688000000
      6378    2        5.909148374831      15.245529406250      90.243900000000
      6379    2        0.362269760770      15.245529406250      88.292688000000
      6380    2        1.748989663895      17.590995468750      90.243900000000
      6381    1        7.295869609207      17.590995468750      89.268288000000
      6382    1        3.135709899833      15.245529406250      89.268288000000
      6383    2       12.842751218583      17.590995468750      88.292688000000
      6384    2       14.229469124831      15.245529406250      90.243900000000
      6385    2        8.682590843583      15.245529406250      88.292688000000
      6386    2       10.069312077959      17.590995468750      90.243900000000
      6387    1       15.616190359207      17.590995468750      89.268288000000
      6388    1       11.456029984207      15.245529406250      89.268288000000
      6389    2       21.163071968583      17.590995468750      88.292688000000
      6390    2       22.549793202959      15.245529406250      90.243900000000
      6391    2       17.002911593583      15.245529406250      88.292688000000
      6392    2       18.389629499831      17.590995468750      90.243900000000
      6393    1       23.936511109207      17.590995468750      89.268288000000
      6394    1       19.776350734207      15.245529406250      89.268288000000
      6395    2       29.483392718583      17.590995468750      88.292688000000
      6396    2       30.870110624831      15.245529406250      90.243900000000
      6397    2       25.323232343583      15.245529406250      88.292688000000
      6398    2       26.709950249831      17.590995468750      90.243900000000
      6399    1       32.256831859207      17.590995468750      89.268288000000
      6400    1       28.096671484207      15.245529406250      89.268288000000
      6401    2        4.522430468583      22.281927593750      88.292688000000
      6402    2        5.909148374831      19.936461531250      90.243900000000
      6403    2        0.362269760770      19.936461531250      88.292688000000
      6404    2        1.748989663895      22.281927593750      90.243900000000
      6405    1        7.295869609207      22.281927593750      89.268288000000
      6406    1        3.135709899833      19.936461531250      89.268288000000
      6407    2       12.842751218583      22.281927593750      88.292688000000
      6408    2       14.229469124831      19.936461531250      90.243900000000
      6409    2        8.682590843583      19.936461531250      88.292688000000
      6410    2       10.069312077959      22.281927593750      90.243900000000
      6411    1       15.616190359207      22.281927593750      89.268288000000
      6412    1       11.456029984207      19.936461531250      89.268288000000
      6413    2       21.163071968583      22.281927593750      88.292688000000
      6414    2       22.549793202959      19.936461531250      90.243900000000
      6415    2       17.002911593583      19.936461531250      88.292688000000
      6416    2       18.389629499831      22.281927593750      90.243900000000
      6417    1       23.936511109207      22.281927593750      89.268288000000
      6418    1       19.776350734207      19.936461531250      89.268288000000
      6419    2       29.483392718583      22.281927593750      88.292688000000
      6420    2       30.870110624831      19.936461531250      90.243900000000
      6421    2       25.323232343583      19.936461531250      88.292688000000
      6422    2       26.709950249831      22.281927593750      90.243900000000
      6423    1       32.256831859207      22.281927593750      89.268288000000
      6424    1       28.096671484207      19.936461531250      89.268288000000
      6425    2        4.522430468583      26.972859718750      88.292688000000
      6426    2        5.909148374831      24.627393656250      90.243900000000
      6427    2        0.362269760770      24.627393656250      88.292688000000
      6428    2        1.748989663895      26.972859718750      90.243900000000
      6429    1        7.295869609207      26.972859718750      89.268288000000
      6430    1        3.135709899833      24.627393656250      89.268288000000
      6431    2       12.842751218583      26.972859718750      88.292688000000
      6432    2       14.229469124831      24.627393656250      90.243900000000
      6433    2        8.682590843583      24.627393656250      88.292688000000
      6434    2       10.069312077959      26.972859718750      90.243900000000
      6435    1       15.616190359207      26.972859718750      89.268288000000
      6436    1       11.456029984207      24.627393656250      89.268288000000
      6437    2       21.163071968583      26.972859718750      88.292688000000
      6438    2       22.549793202959      24.627393656250      90.243900000000
      6439    2       17.002911593583      24.627393656250      88.292688000000
      6440    2       18.389629499831      26.972859718750      90.243900000000
      6441    1       23.936511109207      26.972859718750      89.268288000000
      6442    1       19.776350734207      24.627393656250      89.268288000000
      6443    2       29.483392718583      26.972859718750      88.292688000000
      6444    2       30.870110624831      24.627393656250      90.243900000000
      6445    2       25.323232343583      24.627393656250      88.292688000000
      6446    2       26.709950249831      26.972859718750      90.243900000000
      6447    1       32.256831859207      26.972859718750      89.268288000000
      6448    1       28.096671484207      24.627393656250      89.268288000000
      6449    2        4.522430468583      31.663791843750      88.292688000000
      6450    2        5.909148374831      29.318325781250      90.243900000000
      6451    2        0.362269760770      29.318325781250      88.292688000000
      6452    2        1.748989663895      31.663791843750      90.243900000000
      6453    1        7.295869609207      31.663791843750      89.268288000000
      6454    1        3.135709899833      29.318325781250      89.268288000000
      6455    2       12.842751218583      31.663791843750      88.292688000000
      6456    2       14.229469124831      29.318325781250      90.243900000000
      6457    2        8.682590843583      29.318325781250      88.292688000000
      6458    2       10.069312077959      31.663791843750      90.243900000000
      6459    1       15.616190359207      31.663791843750      89.268288000000
      6460    1       11.456029984207      29.318325781250      89.268288000000
      6461    2       21.163071968583      31.663791843750      88.292688000000
      6462    2       22.549793202959      29.318325781250      90.243900000000
      6463    2       17.002911593583      29.318325781250      88.292688000000
      6464    2       18.389629499831      31.663791843750      90.243900000000
      6465    1       23.936511109207      31.663791843750      89.268288000000
      6466    1       19.776350734207      29.318325781250      89.268288000000
      6467    2       29.483392718583      31.663791843750      88.292688000000
      6468    2       30.870110624831      29.318325781250      90.243900000000
      6469    2       25.323232343583      29.318325781250      88.292688000000
      6470    2       26.709950249831      31.663791843750      90.243900000000
      6471    1       32.256831859207      31.663791843750      89.268288000000
      6472    1       28.096671484207      29.318325781250      89.268288000000
      6473    2        4.522430468583      36.354723968750      88.292688000000
      6474    2        5.909148374831      34.009257906250      90.243900000000
      6475    2        0.362269760770      34.009257906250      88.292688000000
      6476    2        1.748989663895      36.354723968750      90.243900000000
      6477    1        7.295869609207      36.354723968750      89.268288000000
      6478    1        3.135709899833      34.009257906250      89.268288000000
      6479    2       12.842751218583      36.354723968750      88.292688000000
      6480    2       14.229469124831      34.009257906250      90.243900000000
      6481    2        8.682590843583      34.009257906250      88.292688000000
      6482    2       10.069312077959      36.354723968750      90.243900000000
      6483    1       15.616190359207      36.354723968750      89.268288000000
      6484    1       11.456029984207      34.009257906250      89.268288000000
      6485    2       21.163071968583      36.354723968750      88.292688000000
      6486    2       22.549793202959      34.009257906250      90.243900000000
      6487    2       17.002911593583      34.009257906250      88.292688000000
      6488    2       18.389629499831      36.354723968750      90.243900000000
      6489    1       23.936511109207      36.354723968750      89.268288000000
      6490    1       19.776350734207      34.009257906250      89.268288000000
      6491    2       29.483392718583      36.354723968750      88.292688000000
      6492    2       30.870110624831      34.009257906250      90.243900000000
      6493    2       25.323232343583      34.009257906250      88.292688000000
      6494    2       26.709950249831      36.354723968750      90.243900000000
      6495    1       32.256831859207      36.354723968750      89.268288000000
      6496    1       28.096671484207      34.009257906250      89.268288000000
      6497    2        4.522430468583       3.518199093750      91.219512000000
      6498    2        5.909148374831       1.172733031250      93.170736000000
      6499    2        0.362269760770       1.172733031250      91.219512000000
      6500    2        1.748989663895       3.518199093750      93.170736000000
      6501    1        7.295869609207       3.518199093750      92.195124000000
      6502    1        3.135709899833       1.172733031250      92.195124000000
      6503    2       12.842751218583       3.518199093750      91.219512000000
      6504    2       14.229469124831       1.172733031250      93.170736000000
      6505    2        8.682590843583       1.172733031250      91.219512000000
      6506    2       10.069312077959       3.518199093750      93.170736000000
      6507    1       15.616190359207       3.518199093750      92.195124000000
      6508    1       11.456029984207       1.172733031250      92.195124000000
      6509    2       21.163071968583       3.518199093750      91.219512000000
      6510    2       22.549793202959       1.172733031250      93.170736000000
      6511    2       17.002911593583       1.172733031250      91.219512000000
      6512    2       18.389629499831       3.518199093750      93.170736000000
      6513    1       23.936511109207       3.518199093750      92.195124000000
      6514    1       19.776350734207       1.172733031250      92.195124000000
      6515    2       29.483392718583       3.518199093750      91.219512000000
      6516    2       30.870110624831       1.172733031250      93.170736000000
      6517    2       25.323232343583       1.172733031250      91.219512000000
      6518    2       26.709950249831       3.518199093750      93.170736000000
      6519    1       32.256831859207       3.518199093750      92.195124000000
      6520    1       28.096671484207       1.172733031250      92.195124000000
      6521    2        4.522430468583       8.209131218750      91.219512000000
      6522    2        5.909148374831       5.863665156250      93.170736000000
      6523    2        0.362269760770       5.863665156250      91.219512000000
      6524    2        1.748989663895       8.209131218750      93.170736000000
      6525    1        7.295869609207       8.209131218750      92.195124000000
      6526    1        3.135709899833       5.863665156250      92.195124000000
      6527    2       12.842751218583       8.209131218750      91.219512000000
      6528    2       14.229469124831       5.863665156250      93.170736000000
      6529    2        8.682590843583       5.863665156250      91.219512000000
      6530    2       10.069312077959       8.209131218750      93.170736000000
      6531    1       15.616190359207       8.209131218750      92.195124000000
      6532    1       11.456029984207       5.863665156250      92.195124000000
      6533    2       21.163071968583       8.209131218750      91.219512000000
      6534    2       22.549793202959       5.863665156250      93.170736000000
      6535    2       17.002911593583       5.863665156250      91.219512000000
      6536    2       18.389629499831       8.209131218750      93.170736000000
      6537    1       23.936511109207       8.209131218750      92.195124000000
      6538    1       19.776350734207       5.863665156250      92.195124000000
      6539    2       29.483392718583       8.209131218750      91.219512000000
      6540    2       30.870110624831       5.863665156250      93.170736000000
      6541    2       25.323232343583       5.863665156250      91.219512000000
      6542    2       26.709950249831       8.209131218750      93.170736000000
      6543    1       32.256831859207       8.209131218750      92.195124000000
      6544    1       28.096671484207       5.863665156250      92.195124000000
      6545    2        4.522430468583      12.900063343750      91.219512000000
      6546    2        5.909148374831      10.554597281250      93.170736000000
      6547    2        0.362269760770      10.554597281250      91.219512000000
      6548    2        1.748989663895      12.900063343750      93.170736000000
      6549    1        7.295869609207      12.900063343750      92.195124000000
      6550    1        3.135709899833      10.554597281250      92.195124000000
      6551    2       12.842751218583      12.900063343750      91.219512000000
      6552    2       14.229469124831      10.554597281250      93.170736000000
      6553    2        8.682590843583      10.554597281250      91.219512000000
      6554    2       10.069312077959      12.900063343750      93.170736000000
      6555    1       15.616190359207      12.900063343750      92.195124000000
      6556    1       11.456029984207      10.554597281250      92.195124000000
      6557    2       21.163071968583      12.900063343750      91.219512000000
      6558    2       22.549793202959      10.554597281250      93.170736000000
      6559    2       17.002911593583      10.554597281250      91.219512000000
      6560    2       18.389629499831      12.900063343750      93.170736000000
      6561    1       23.936511109207      12.900063343750      92.195124000000
      6562    1       19.776350734207      10.554597281250      92.195124000000
      6563    2       29.483392718583      12.900063343750      91.219512000000
      6564    2       30.870110624831      10.554597281250      93.170736000000
      6565    2       25.323232343583      10.554597281250      91.219512000000
      6566    2       26.709950249831      12.900063343750      93.170736000000
      6567    1       32.256831859207      12.900063343750      92.195124000000
      6568    1       28.096671484207      10.554597281250      92.195124000000
      6569    2        4.522430468583      17.590995468750      91.219512000000
      6570    2        5.909148374831      15.245529406250      93.170736000000
      6571    2        0.362269760770      15.245529406250      91.219512000000
      6572    2        1.748989663895      17.590995468750      93.170736000000
      6573    1        7.295869609207      17.590995468750      92.195124000000
      6574    1        3.135709899833      15.245529406250      92.195124000000
      6575    2       12.842751218583      17.590995468750      91.219512000000
      6576    2       14.229469124831      15.245529406250      93.170736000000
      6577    2        8.682590843583      15.245529406250      91.219512000000
      6578    2       10.069312077959      17.590995468750      93.170736000000
      6579    1       15.616190359207      17.590995468750      92.195124000000
      6580    1       11.456029984207      15.245529406250      92.195124000000
      6581    2       21.163071968583      17.590995468750      91.219512000000
      6582    2       22.549793202959      15.245529406250      93.170736000000
      6583    2       17.002911593583      15.245529406250      91.219512000000
      6584    2       18.389629499831      17.590995468750      93.170736000000
      6585    1       23.936511109207      17.590995468750      92.195124000000
      6586    1       19.776350734207      15.245529406250      92.195124000000
      6587    2       29.483392718583      17.590995468750      91.219512000000
      6588    2       30.870110624831      15.245529406250      93.170736000000
      6589    2       25.323232343583      15.245529406250      91.219512000000
      6590    2       26.709950249831      17.590995468750      93.170736000000
      6591    1       32.256831859207      17.590995468750      92.195124000000
      6592    1       28.096671484207      15.245529406250      92.195124000000
      6593    2        4.522430468583      22.281927593750      91.219512000000
      6594    2        5.909148374831      19.936461531250      93.170736000000
      6595    2        0.362269760770      19.936461531250      91.219512000000
      6596    2        1.748989663895      22.281927593750      93.170736000000
      6597    1        7.295869609207      22.281927593750      92.195124000000
      6598    1        3.135709899833      19.936461531250      92.195124000000
      6599    2       12.842751218583      22.281927593750      91.219512000000
      6600    2       14.229469124831      19.936461531250      93.170736000000
      6601    2        8.682590843583      19.936461531250      91.219512000000
      6602    2       10.069312077959      22.281927593750      93.170736000000
      6603    1       15.616190359207      22.281927593750      92.195124000000
      6604    1       11.456029984207      19.936461531250      92.195124000000
      6605    2       21.163071968583      22.281927593750      91.219512000000
      6606    2       22.549793202959      19.936461531250      93.170736000000
      6607    2       17.002911593583      19.936461531250      91.219512000000
      6608    2       18.389629499831      22.281927593750      93.170736000000
      6609    1       23.936511109207      22.281927593750      92.195124000000
      6610    1       19.776350734207      19.936461531250      92.195124000000
      6611    2       29.483392718583      22.281927593750      91.219512000000
      6612    2       30.870110624831      19.936461531250      93.170736000000
      6613    2       25.323232343583      19.936461531250      91.219512000000
      6614    2       26.709950249831      22.281927593750      93.170736000000
      6615    1       32.256831859207      22.281927593750      92.195124000000
      6616    1       28.096671484207      19.936461531250      92.195124000000
      6617    2        4.522430468583      26.972859718750      91.219512000000
      6618    2        5.909148374831      24.627393656250      93.170736000000
      6619    2        0.362269760770      24.627393656250      91.219512000000
      6620    2        1.748989663895      26.972859718750      93.170736000000
      6621    1        7.295869609207      26.972859718750      92.195124000000
      6622    1        3.135709899833      24.627393656250      92.195124000000
      6623    2       12.842751218583      26.972859718750      91.219512000000
      6624    2       14.229469124831      24.627393656250      93.170736000000
      6625    2        8.682590843583      24.627393656250      91.219512000000
      6626    2       10.069312077959      26.972859718750      93.170736000000
      6627    1       15.616190359207      26.972859718750      92.195124000000
      6628    1       11.456029984207      24.627393656250      92.195124000000
      6629    2       21.163071968583      26.972859718750      91.219512000000
      6630    2       22.549793202959      24.627393656250      93.170736000000
      6631    2       17.002911593583      24.627393656250      91.219512000000
      6632    2       18.389629499831      26.972859718750      93.170736000000
      6633    1       23.936511109207      26.972859718750      92.195124000000
      6634    1       19.776350734207      24.627393656250      92.195124000000
      6635    2       29.483392718583      26.972859718750      91.219512000000
      6636    2       30.870110624831      24.627393656250      93.170736000000
      6637    2       25.323232343583      24.627393656250      91.219512000000
      6638    2       26.709950249831      26.972859718750      93.170736000000
      6639    1       32.256831859207      26.972859718750      92.195124000000
      6640    1       28.096671484207      24.627393656250      92.195124000000
      6641    2        4.522430468583      31.663791843750      91.219512000000
      6642    2        5.909148374831      29.318325781250      93.170736000000
      6643    2        0.362269760770      29.318325781250      91.219512000000
      6644    2        1.748989663895      31.663791843750      93.170736000000
      6645    1        7.295869609207      31.663791843750      92.195124000000
      6646    1        3.135709899833      29.318325781250      92.195124000000
      6647    2       12.842751218583      31.663791843750      91.219512000000
      6648    2       14.229469124831      29.318325781250      93.170736000000
      6649    2        8.682590843583      29.318325781250      91.219512000000
      6650    2       10.069312077959      31.663791843750      93.170736000000
      6651    1       15.616190359207      31.663791843750      92.195124000000
      6652    1       11.456029984207      29.318325781250      92.195124000000
      6653    2       21.163071968583      31.663791843750      91.219512000000
      6654    2       22.549793202959      29.318325781250      93.170736000000
      6655    2       17.002911593583      29.318325781250      91.219512000000
      6656    2       18.389629499831      31.663791843750      93.170736000000
      6657    1       23.936511109207      31.663791843750      92.195124000000
      6658    1       19.776350734207      29.318325781250      92.195124000000
      6659    2       29.483392718583      31.663791843750      91.219512000000
      6660    2       30.870110624831      29.318325781250      93.170736000000
      6661    2       25.323232343583      29.318325781250      91.219512000000
      6662    2       26.709950249831      31.663791843750      93.170736000000
      6663    1       32.256831859207      31.663791843750      92.195124000000
      6664    1       28.096671484207      29.318325781250      92.195124000000
      6665    2        4.522430468583      36.354723968750      91.219512000000
      6666    2        5.909148374831      34.009257906250      93.170736000000
      6667    2        0.362269760770      34.009257906250      91.219512000000
      6668    2        1.748989663895      36.354723968750      93.170736000000
      6669    1        7.295869609207      36.354723968750      92.195124000000
      6670    1        3.135709899833      34.009257906250      92.195124000000
      6671    2       12.842751218583      36.354723968750      91.219512000000
      6672    2       14.229469124831      34.009257906250      93.170736000000
      6673    2        8.682590843583      34.009257906250      91.219512000000
      6674    2       10.069312077959      36.354723968750      93.170736000000
      6675    1       15.616190359207      36.354723968750      92.195124000000
      6676    1       11.456029984207      34.009257906250      92.195124000000
      6677    2       21.163071968583      36.354723968750      91.219512000000
      6678    2       22.549793202959      34.009257906250      93.170736000000
      6679    2       17.002911593583      34.009257906250      91.219512000000
      6680    2       18.389629499831      36.354723968750      93.170736000000
      6681    1       23.936511109207      36.354723968750      92.195124000000
      6682    1       19.776350734207      34.009257906250      92.195124000000
      6683    2       29.483392718583      36.354723968750      91.219512000000
      6684    2       30.870110624831      34.009257906250      93.170736000000
      6685    2       25.323232343583      34.009257906250      91.219512000000
      6686    2       26.709950249831      36.354723968750      93.170736000000
      6687    1       32.256831859207      36.354723968750      92.195124000000
      6688    1       28.096671484207      34.009257906250      92.195124000000
      6689    2        4.522430468583       3.518199093750      94.146336000000
      6690    2        0.362269760770       1.172733031250      94.146336000000
      6691    2       12.842751218583       3.518199093750      94.146336000000
      6692    2        8.682590843583       1.172733031250      94.146336000000
      6693    2       21.163071968583       3.518199093750      94.146336000000
      6694    2       17.002911593583       1.172733031250      94.146336000000
      6695    2       29.483392718583       3.518199093750      94.146336000000
      6696    2       25.323232343583       1.172733031250      94.146336000000
      6697    2        4.522430468583       8.209131218750      94.146336000000
      6698    2        0.362269760770       5.863665156250      94.146336000000
      6699    2       12.842751218583       8.209131218750      94.146336000000
      6700    2        8.682590843583       5.863665156250      94.146336000000
      6701    2       21.163071968583       8.209131218750      94.146336000000
      6702    2       17.002911593583       5.863665156250      94.146336000000
      6703    2       29.483392718583       8.209131218750      94.146336000000
      6704    2       25.323232343583       5.863665156250      94.146336000000
      6705    2        4.522430468583      12.900063343750      94.146336000000
      6706    2        0.362269760770      10.554597281250      94.146336000000
      6707    2       12.842751218583      12.900063343750      94.146336000000
      6708    2        8.682590843583      10.554597281250      94.146336000000
      6709    2       21.163071968583      12.900063343750      94.146336000000
      6710    2       17.002911593583      10.554597281250      94.146336000000
      6711    2       29.483392718583      12.900063343750      94.146336000000
      6712    2       25.323232343583      10.554597281250      94.146336000000
      6713    2        4.522430468583      17.590995468750      94.146336000000
      6714    2        0.362269760770      15.245529406250      94.146336000000
      6715    2       12.842751218583      17.590995468750      94.146336000000
      6716    2        8.682590843583      15.245529406250      94.146336000000
      6717    2       21.163071968583      17.590995468750      94.146336000000
      6718    2       17.002911593583      15.245529406250      94.146336000000
      6719    2       29.483392718583      17.590995468750      94.146336000000
      6720    2       25.323232343583      15.245529406250      94.146336000000
      6721    2        4.522430468583      22.281927593750      94.146336000000
      6722    2        0.362269760770      19.936461531250      94.146336000000
      6723    2       12.842751218583      22.281927593750      94.146336000000
      6724    2        8.682590843583      19.936461531250      94.146336000000
      6725    2       21.163071968583      22.281927593750      94.146336000000
      6726    2       17.002911593583      19.936461531250      94.146336000000
      6727    2       29.483392718583      22.281927593750      94.146336000000
      6728    2       25.323232343583      19.936461531250      94.146336000000
      6729    2        4.522430468583      26.972859718750      94.146336000000
      6730    2        0.362269760770      24.627393656250      94.146336000000
      6731    2       12.842751218583      26.972859718750      94.146336000000
      6732    2        8.682590843583      24.627393656250      94.146336000000
      6733    2       21.163071968583      26.972859718750      94.146336000000
      6734    2       17.002911593583      24.627393656250      94.146336000000
      6735    2       29.483392718583      26.972859718750      94.146336000000
      6736    2       25.323232343583      24.627393656250      94.146336000000
      6737    2        4.522430468583      31.663791843750      94.146336000000
      6738    2        0.362269760770      29.318325781250      94.146336000000
      6739    2       12.842751218583      31.663791843750      94.146336000000
      6740    2        8.682590843583      29.318325781250      94.146336000000
      6741    2       21.163071968583      31.663791843750      94.146336000000
      6742    2       17.002911593583      29.318325781250      94.146336000000
      6743    2       29.483392718583      31.663791843750      94.146336000000
      6744    2       25.323232343583      29.318325781250      94.146336000000
      6745    2        4.522430468583      36.354723968750      94.146336000000
      6746    2        0.362269760770      34.009257906250      94.146336000000
      6747    2       12.842751218583      36.354723968750      94.146336000000
      6748    2        8.682590843583      34.009257906250      94.146336000000
      6749    2       21.163071968583      36.354723968750      94.146336000000
      6750    2       17.002911593583      34.009257906250      94.146336000000
      6751    2       29.483392718583      36.354723968750      94.146336000000
      6752    2       25.323232343583      34.009257906250      94.146336000000
      6753    1        6.240240562500       1.172733031250      96.097560000000
      6754    1        2.080080187500       3.518199093750      96.097560000000
      6755    1        7.626961796876       3.518199093750      95.121948000000
      6756    1        3.466801421876       1.172733031250      95.121948000000
      6757    1       14.560561312500       1.172733031250      96.097560000000
      6758    1       10.400400937500       3.518199093750      96.097560000000
      6759    1       15.947282546876       3.518199093750      95.121948000000
      6760    1       11.787122171876       1.172733031250      95.121948000000
      6761    1       22.880882062500       1.172733031250      96.097560000000
      6762    1       18.720721687500       3.518199093750      96.097560000000
      6763    1       24.267603296876       3.518199093750      95.121948000000
      6764    1       20.107442921876       1.172733031250      95.121948000000
      6765    1       31.201202812500       1.172733031250      96.097560000000
      6766    1       27.041042437500       3.518199093750      96.097560000000
      6767    1       32.587924046876       3.518199093750      95.121948000000
      6768    1       28.427763671876       1.172733031250      95.121948000000
      6769    1        6.240240562500       5.863665156250      96.097560000000
      6770    1        2.080080187500       8.209131218750      96.097560000000
      6771    1        7.626961796876       8.209131218750      95.121948000000
      6772    1        3.466801421876       5.863665156250      95.121948000000
      6773    1       14.560561312500       5.863665156250      96.097560000000
      6774    1       10.400400937500       8.209131218750      96.097560000000
      6775    1       15.947282546876       8.209131218750      95.121948000000
      6776    1       11.787122171876       5.863665156250      95.121948000000
      6777    1       22.880882062500       5.863665156250      96.097560000000
      6778    1       18.720721687500       8.209131218750      96.097560000000
      6779    1       24.267603296876       8.209131218750      95.121948000000
      6780    1       20.107442921876       5.863665156250      95.121948000000
      6781    1       31.201202812500       5.863665156250      96.097560000000
      6782    1       27.041042437500       8.209131218750      96.097560000000
      6783    1       32.587924046876       8.209131218750      95.121948000000
      6784    1       28.427763671876       5.863665156250      95.121948000000
      6785    1        6.240240562500      10.554597281250      96.097560000000
      6786    1        2.080080187500      12.900063343750      96.097560000000
      6787    1        7.626961796876      12.900063343750      95.121948000000
      6788    1        3.466801421876      10.554597281250      95.121948000000
      6789    1       14.560561312500      10.554597281250      96.097560000000
      6790    1       10.400400937500      12.900063343750      96.097560000000
      6791    1       15.947282546876      12.900063343750      95.121948000000
      6792    1       11.787122171876      10.554597281250      95.121948000000
      6793    1       22.880882062500      10.554597281250      96.097560000000
      6794    1       18.720721687500      12.900063343750      96.097560000000
      6795    1       24.267603296876      12.900063343750      95.121948000000
      6796    1       20.107442921876      10.554597281250      95.121948000000
      6797    1       31.201202812500      10.554597281250      96.097560000000
      6798    1       27.041042437500      12.900063343750      96.097560000000
      6799    1       32.587924046876      12.900063343750      95.121948000000
      6800    1       28.427763671876      10.554597281250      95.121948000000
      6801    1        6.240240562500      15.245529406250      96.097560000000
      6802    1        2.080080187500      17.590995468750      96.097560000000
      6803    1        7.626961796876      17.590995468750      95.121948000000
      6804    1        3.466801421876      15.245529406250      95.121948000000
      6805    1       14.560561312500      15.245529406250      96.097560000000
      6806    1       10.400400937500      17.590995468750      96.097560000000
      6807    1       15.947282546876      17.590995468750      95.121948000000
      6808    1       11.787122171876      15.245529406250      95.121948000000
      6809    1       22.880882062500      15.245529406250      96.097560000000
      6810    1       18.720721687500      17.590995468750      96.097560000000
      6811    1       24.267603296876      17.590995468750      95.121948000000
      6812    1       20.107442921876      15.245529406250      95.121948000000
      6813    1       31.201202812500      15.245529406250      96.097560000000
      6814    1       27.041042437500      17.590995468750      96.097560000000
      6815    1       32.587924046876      17.590995468750      95.121948000000
      6816    1       28.427763671876      15.245529406250      95.121948000000
      6817    1        6.240240562500      19.936461531250      96.097560000000
      6818    1        2.080080187500      22.281927593750      96.097560000000
      6819    1        7.626961796876      22.281927593750      95.121948000000
      6820    1        3.466801421876      19.936461531250      95.121948000000
      6821    1       14.560561312500      19.936461531250      96.097560000000
      6822    1       10.400400937500      22.281927593750      96.097560000000
      6823    1       15.947282546876      22.281927593750      95.121948000000
      6824    1       11.787122171876      19.936461531250      95.121948000000
      6825    1       22.880882062500      19.936461531250      96.097560000000
      6826    1       18.720721687500      22.281927593750      96.097560000000
      6827    1       24.267603296876      22.281927593750      95.121948000000
      6828    1       20.107442921876      19.936461531250      95.121948000000
      6829    1       31.201202812500      19.936461531250      96.097560000000
      6830    1       27.041042437500      22.281927593750      96.097560000000
      6831    1       32.587924046876      22.281927593750      95.121948000000
      6832    1       28.427763671876      19.936461531250      95.121948000000
      6833    1        6.240240562500      24.627393656250      96.097560000000
      6834    1        2.080080187500      26.972859718750      96.097560000000
      6835    1        7.626961796876      26.972859718750      95.121948000000
      6836    1        3.466801421876      24.627393656250      95.121948000000
      6837    1       14.560561312500      24.627393656250      96.097560000000
      6838    1       10.400400937500      26.972859718750      96.097560000000
      6839    1       15.947282546876      26.972859718750      95.121948000000
      6840    1       11.787122171876      24.627393656250      95.121948000000
      6841    1       22.880882062500      24.627393656250      96.097560000000
      6842    1       18.720721687500      26.972859718750      96.097560000000
      6843    1       24.267603296876      26.972859718750      95.121948000000
      6844    1       20.107442921876      24.627393656250      95.121948000000
      6845    1       31.201202812500      24.627393656250      96.097560000000
      6846    1       27.041042437500      26.972859718750      96.097560000000
      6847    1       32.587924046876      26.972859718750      95.121948000000
      6848    1       28.427763671876      24.627393656250      95.121948000000
      6849    1        6.240240562500      29.318325781250      96.097560000000
      6850    1        2.080080187500      31.663791843750      96.097560000000
      6851    1        7.626961796876      31.663791843750      95.121948000000
      6852    1        3.466801421876      29.318325781250      95.121948000000
      6853    1       14.560561312500      29.318325781250      96.097560000000
      6854    1       10.400400937500      31.663791843750      96.097560000000
      6855    1       15.947282546876      31.663791843750      95.121948000000
      6856    1       11.787122171876      29.318325781250      95.121948000000
      6857    1       22.880882062500      29.318325781250      96.097560000000
      6858    1       18.720721687500      31.663791843750      96.097560000000
      6859    1       24.267603296876      31.663791843750      95.121948000000
      6860    1       20.107442921876      29.318325781250      95.121948000000
      6861    1       31.201202812500      29.318325781250      96.097560000000
      6862    1       27.041042437500      31.663791843750      96.097560000000
      6863    1       32.587924046876      31.663791843750      95.121948000000
      6864    1       28.427763671876      29.318325781250      95.121948000000
      6865    1        6.240240562500      34.009257906250      96.097560000000
      6866    1        2.080080187500      36.354723968750      96.097560000000
      6867    1        7.626961796876      36.354723968750      95.121948000000
      6868    1        3.466801421876      34.009257906250      95.121948000000
      6869    1       14.560561312500      34.009257906250      96.097560000000
      6870    1       10.400400937500      36.354723968750      96.097560000000
      6871    1       15.947282546876      36.354723968750      95.121948000000
      6872    1       11.787122171876      34.009257906250      95.121948000000
      6873    1       22.880882062500      34.009257906250      96.097560000000
      6874    1       18.720721687500      36.354723968750      96.097560000000
      6875    1       24.267603296876      36.354723968750      95.121948000000
      6876    1       20.107442921876      34.009257906250      95.121948000000
      6877    1       31.201202812500      34.009257906250      96.097560000000
      6878    1       27.041042437500      36.354723968750      96.097560000000
      6879    1       32.587924046876      36.354723968750      95.121948000000
      6880    1       28.427763671876      34.009257906250      95.121948000000
      6881    1        4.853519328124       3.518199093750      97.073172000000
      6882    1        6.240240562500       1.172733031250      99.024396000000
      6883    1        0.693359951562       1.172733031250      97.073172000000
      6884    1        2.080080187500       3.518199093750      99.024396000000
      6885    1        7.626961796876       3.518199093750      98.048784000000
      6886    1        3.466801421876       1.172733031250      98.048784000000
      6887    1       13.173840078124       3.518199093750      97.073172000000
      6888    1       14.560561312500       1.172733031250      99.024396000000
      6889    1        9.013679703124       1.172733031250      97.073172000000
      6890    1       10.400400937500       3.518199093750      99.024396000000
      6891    1       15.947282546876       3.518199093750      98.048784000000
      6892    1       11.787122171876       1.172733031250      98.048784000000
      6893    1       21.494160828124       3.518199093750      97.073172000000
      6894    1       22.880882062500       1.172733031250      99.024396000000
      6895    1       17.334000453124       1.172733031250      97.073172000000
      6896    1       18.720721687500       3.518199093750      99.024396000000
      6897    1       24.267603296876       3.518199093750      98.048784000000
      6898    1       20.107442921876       1.172733031250      98.048784000000
      6899    1       29.814481578124       3.518199093750      97.073172000000
      6900    1       31.201202812500       1.172733031250      99.024396000000
      6901    1       25.654321203124       1.172733031250      97.073172000000
      6902    1       27.041042437500       3.518199093750      99.024396000000
      6903    1       32.587924046876       3.518199093750      98.048784000000
      6904    1       28.427763671876       1.172733031250      98.048784000000
      6905    1        4.853519328124       8.209131218750      97.073172000000
      6906    1        6.240240562500       5.863665156250      99.024396000000
      6907    1        0.693359951562       5.863665156250      97.073172000000
      6908    1        2.080080187500       8.209131218750      99.024396000000
      6909    1        7.626961796876       8.209131218750      98.048784000000
      6910    1        3.466801421876       5.863665156250      98.048784000000
      6911    1       13.173840078124       8.209131218750      97.073172000000
      6912    1       14.560561312500       5.863665156250      99.024396000000
      6913    1        9.013679703124       5.863665156250      97.073172000000
      6914    1       10.400400937500       8.209131218750      99.024396000000
      6915    1       15.947282546876       8.209131218750      98.048784000000
      6916    1       11.787122171876       5.863665156250      98.048784000000
      6917    1       21.494160828124       8.209131218750      97.073172000000
      6918    1       22.880882062500       5.863665156250      99.024396000000
      6919    1       17.334000453124       5.863665156250      97.073172000000
      6920    1       18.720721687500       8.209131218750      99.024396000000
      6921    1       24.267603296876       8.209131218750      98.048784000000
      6922    1       20.107442921876       5.863665156250      98.048784000000
      6923    1       29.814481578124       8.209131218750      97.073172000000
      6924    1       31.201202812500       5.863665156250      99.024396000000
      6925    1       25.654321203124       5.863665156250      97.073172000000
      6926    1       27.041042437500       8.209131218750      99.024396000000
      6927    1       32.587924046876       8.209131218750      98.048784000000
      6928    1       28.427763671876       5.863665156250      98.048784000000
      6929    1        4.853519328124      12.900063343750      97.073172000000
      6930    1        6.240240562500      10.554597281250      99.024396000000
      6931    1        0.693359951562      10.554597281250      97.073172000000
      6932    1        2.080080187500      12.900063343750      99.024396000000
      6933    1        7.626961796876      12.900063343750      98.048784000000
      6934    1        3.466801421876      10.554597281250      98.048784000000
      6935    1       13.173840078124      12.900063343750      97.073172000000
      6936    1       14.560561312500      10.554597281250      99.024396000000
      6937    1        9.013679703124      10.554597281250      97.073172000000
      6938    1       10.400400937500      12.900063343750      99.024396000000
      6939    1       15.947282546876      12.900063343750      98.048784000000
      6940    1       11.787122171876      10.554597281250      98.048784000000
      6941    1       21.494160828124      12.900063343750      97.073172000000
      6942    1       22.880882062500      10.554597281250      99.024396000000
      6943    1       17.334000453124      10.554597281250      97.073172000000
      6944    1       18.720721687500      12.900063343750      99.024396000000
      6945    1       24.267603296876      12.900063343750      98.048784000000
      6946    1       20.107442921876      10.554597281250      98.048784000000
      6947    1       29.814481578124      12.900063343750      97.073172000000
      6948    1       31.201202812500      10.554597281250      99.024396000000
      6949    1       25.654321203124      10.554597281250      97.073172000000
      6950    1       27.041042437500      12.900063343750      99.024396000000
      6951    1       32.587924046876      12.900063343750      98.048784000000
      6952    1       28.427763671876      10.554597281250      98.048784000000
      6953    1        4.853519328124      17.590995468750      97.073172000000
      6954    1        6.240240562500      15.245529406250      99.024396000000
      6955    1        0.693359951562      15.245529406250      97.073172000000
      6956    1        2.080080187500      17.590995468750      99.024396000000
      6957    1        7.626961796876      17.590995468750      98.048784000000
      6958    1        3.466801421876      15.245529406250      98.048784000000
      6959    1       13.173840078124      17.590995468750      97.073172000000
      6960    1       14.560561312500      15.245529406250      99.024396000000
      6961    1        9.013679703124      15.245529406250      97.073172000000
      6962    1       10.400400937500      17.590995468750      99.024396000000
      6963    1       15.947282546876      17.590995468750      98.048784000000
      6964    1       11.787122171876      15.245529406250      98.048784000000
      6965    1       21.494160828124      17.590995468750      97.073172000000
      6966    1       22.880882062500      15.245529406250      99.024396000000
      6967    1       17.334000453124      15.245529406250      97.073172000000
      6968    1       18.720721687500      17.590995468750      99.024396000000
      6969    1       24.267603296876      17.590995468750      98.048784000000
      6970    1       20.107442921876      15.245529406250      98.048784000000
      6971    1       29.814481578124      17.590995468750      97.073172000000
      6972    1       31.201202812500      15.245529406250      99.024396000000
      6973    1       25.654321203124      15.245529406250      97.073172000000
      6974    1       27.041042437500      17.590995468750      99.024396000000
      6975    1       32.587924046876      17.590995468750      98.048784000000
      6976    1       28.427763671876      15.245529406250      98.048784000000
      6977    1        4.853519328124      22.281927593750      97.073172000000
      6978    1        6.240240562500      19.936461531250      99.024396000000
      6979    1        0.693359951562      19.936461531250      97.073172000000
      6980    1        2.080080187500      22.281927593750      99.024396000000
      6981    1        7.626961796876      22.281927593750      98.048784000000
      6982    1        3.466801421876      19.936461531250      98.048784000000
      6983    1       13.173840078124      22.281927593750      97.073172000000
      6984    1       14.560561312500      19.936461531250      99.024396000000
      6985    1        9.013679703124      19.936461531250      97.073172000000
      6986    1       10.400400937500      22.281927593750      99.024396000000
      6987    1       15.947282546876      22.281927593750      98.048784000000
      6988    1       11.787122171876      19.936461531250      98.048784000000
      6989    1       21.494160828124      22.281927593750      97.073172000000
      6990    1       22.880882062500      19.936461531250      99.024396000000
      6991    1       17.334000453124      19.936461531250      97.073172000000
      6992    1       18.720721687500      22.281927593750      99.024396000000
      6993    1       24.267603296876      22.281927593750      98.048784000000
      6994    1       20.107442921876      19.936461531250      98.048784000000
      6995    1       29.814481578124      22.281927593750      97.073172000000
      6996    1       31.201202812500      19.936461531250      99.024396000000
      6997    1       25.654321203124      19.936461531250      97.073172000000
      6998    1       27.041042437500      22.281927593750      99.024396000000
      6999    1       32.587924046876      22.281927593750      98.048784000000
      7000    1       28.427763671876      19.936461531250      98.048784000000
      7001    1        4.853519328124      26.972859718750      97.073172000000
      7002    1        6.240240562500      24.627393656250      99.024396000000
      7003    1        0.693359951562      24.627393656250      97.073172000000
      7004    1        2.080080187500      26.972859718750      99.024396000000
      7005    1        7.626961796876      26.972859718750      98.048784000000
      7006    1        3.466801421876      24.627393656250      98.048784000000
      7007    1       13.173840078124      26.972859718750      97.073172000000
      7008    1       14.560561312500      24.627393656250      99.024396000000
      7009    1        9.013679703124      24.627393656250      97.073172000000
      7010    1       10.400400937500      26.972859718750      99.024396000000
      7011    1       15.947282546876      26.972859718750      98.048784000000
      7012    1       11.787122171876      24.627393656250      98.048784000000
      7013    1       21.494160828124      26.972859718750      97.073172000000
      7014    1       22.880882062500      24.627393656250      99.024396000000
      7015    1       17.334000453124      24.627393656250      97.073172000000
      7016    1       18.720721687500      26.972859718750      99.024396000000
      7017    1       24.267603296876      26.972859718750      98.048784000000
      7018    1       20.107442921876      24.627393656250      98.048784000000
      7019    1       29.814481578124      26.972859718750      97.073172000000
      7020    1       31.201202812500      24.627393656250      99.024396000000
      7021    1       25.654321203124      24.627393656250      97.073172000000
      7022    1       27.041042437500      26.972859718750      99.024396000000
      7023    1       32.587924046876      26.972859718750      98.048784000000
      7024    1       28.427763671876      24.627393656250      98.048784000000
      7025    1        4.853519328124      31.663791843750      97.073172000000
      7026    1        6.240240562500      29.318325781250      99.024396000000
      7027    1        0.693359951562      29.318325781250      97.073172000000
      7028    1        2.080080187500      31.663791843750      99.024396000000
      7029    1        7.626961796876      31.663791843750      98.048784000000
      7030    1        3.466801421876      29.318325781250      98.048784000000
      7031    1       13.173840078124      31.663791843750      97.073172000000
      7032    1       14.560561312500      29.318325781250      99.024396000000
      7033    1        9.013679703124      29.318325781250      97.073172000000
      7034    1       10.400400937500      31.663791843750      99.024396000000
      7035    1       15.947282546876      31.663791843750      98.048784000000
      7036    1       11.787122171876      29.318325781250      98.048784000000
      7037    1       21.494160828124      31.663791843750      97.073172000000
      7038    1       22.880882062500      29.318325781250      99.024396000000
      7039    1       17.334000453124      29.318325781250      97.073172000000
      7040    1       18.720721687500      31.663791843750      99.024396000000
      7041    1       24.267603296876      31.663791843750      98.048784000000
      7042    1       20.107442921876      29.318325781250      98.048784000000
      7043    1       29.814481578124      31.663791843750      97.073172000000
      7044    1       31.201202812500      29.318325781250      99.024396000000
      7045    1       25.654321203124      29.318325781250      97.073172000000
      7046    1       27.041042437500      31.663791843750      99.024396000000
      7047    1       32.587924046876      31.663791843750      98.048784000000
      7048    1       28.427763671876      29.318325781250      98.048784000000
      7049    1        4.853519328124      36.354723968750      97.073172000000
      7050    1        6.240240562500      34.009257906250      99.024396000000
      7051    1        0.693359951562      34.009257906250      97.073172000000
      7052    1        2.080080187500      36.354723968750      99.024396000000
      7053    1        7.626961796876      36.354723968750      98.048784000000
      7054    1        3.466801421876      34.009257906250      98.048784000000
      7055    1       13.173840078124      36.354723968750      97.073172000000
      7056    1       14.560561312500      34.009257906250      99.024396000000
      7057    1        9.013679703124      34.009257906250      97.073172000000
      7058    1       10.400400937500      36.354723968750      99.024396000000
      7059    1       15.947282546876      36.354723968750      98.048784000000
      7060    1       11.787122171876      34.009257906250      98.048784000000
      7061    1       21.494160828124      36.354723968750      97.073172000000
      7062    1       22.880882062500      34.009257906250      99.024396000000
      7063    1       17.334000453124      34.009257906250      97.073172000000
      7064    1       18.720721687500      36.354723968750      99.024396000000
      7065    1       24.267603296876      36.354723968750      98.048784000000
      7066    1       20.107442921876      34.009257906250      98.048784000000
      7067    1       29.814481578124      36.354723968750      97.073172000000
      7068    1       31.201202812500      34.009257906250      99.024396000000
      7069    1       25.654321203124      34.009257906250      97.073172000000
      7070    1       27.041042437500      36.354723968750      99.024396000000
      7071    1       32.587924046876      36.354723968750      98.048784000000
      7072    1       28.427763671876      34.009257906250      98.048784000000
      7073    1        4.853519328124       3.518199093750      99.999996000000
      7074    1        6.240240562500       1.172733031250     101.951220000000
      7075    1        0.693359951562       1.172733031250      99.999996000000
      7076    1        2.080080187500       3.518199093750     101.951220000000
      7077    1        7.626961796876       3.518199093750     100.975608000000
      7078    1        3.466801421876       1.172733031250     100.975608000000
      7079    1       13.173840078124       3.518199093750      99.999996000000
      7080    1       14.560561312500       1.172733031250     101.951220000000
      7081    1        9.013679703124       1.172733031250      99.999996000000
      7082    1       10.400400937500       3.518199093750     101.951220000000
      7083    1       15.947282546876       3.518199093750     100.975608000000
      7084    1       11.787122171876       1.172733031250     100.975608000000
      7085    1       21.494160828124       3.518199093750      99.999996000000
      7086    1       22.880882062500       1.172733031250     101.951220000000
      7087    1       17.334000453124       1.172733031250      99.999996000000
      7088    1       18.720721687500       3.518199093750     101.951220000000
      7089    1       24.267603296876       3.518199093750     100.975608000000
      7090    1       20.107442921876       1.172733031250     100.975608000000
      7091    1       29.814481578124       3.518199093750      99.999996000000
      7092    1       31.201202812500       1.172733031250     101.951220000000
      7093    1       25.654321203124       1.172733031250      99.999996000000
      7094    1       27.041042437500       3.518199093750     101.951220000000
      7095    1       32.587924046876       3.518199093750     100.975608000000
      7096    1       28.427763671876       1.172733031250     100.975608000000
      7097    1        4.853519328124       8.209131218750      99.999996000000
      7098    1        6.240240562500       5.863665156250     101.951220000000
      7099    1        0.693359951562       5.863665156250      99.999996000000
      7100    1        2.080080187500       8.209131218750     101.951220000000
      7101    1        7.626961796876       8.209131218750     100.975608000000
      7102    1        3.466801421876       5.863665156250     100.975608000000
      7103    1       13.173840078124       8.209131218750      99.999996000000
      7104    1       14.560561312500       5.863665156250     101.951220000000
      7105    1        9.013679703124       5.863665156250      99.999996000000
      7106    1       10.400400937500       8.209131218750     101.951220000000
      7107    1       15.947282546876       8.209131218750     100.975608000000
      7108    1       11.787122171876       5.863665156250     100.975608000000
      7109    1       21.494160828124       8.209131218750      99.999996000000
      7110    1       22.880882062500       5.863665156250     101.951220000000
      7111    1       17.334000453124       5.863665156250      99.999996000000
      7112    1       18.720721687500       8.209131218750     101.951220000000
      7113    1       24.267603296876       8.209131218750     100.975608000000
      7114    1       20.107442921876       5.863665156250     100.975608000000
      7115    1       29.814481578124       8.209131218750      99.999996000000
      7116    1       31.201202812500       5.863665156250     101.951220000000
      7117    1       25.654321203124       5.863665156250      99.999996000000
      7118    1       27.041042437500       8.209131218750     101.951220000000
      7119    1       32.587924046876       8.209131218750     100.975608000000
      7120    1       28.427763671876       5.863665156250     100.975608000000
      7121    1        4.853519328124      12.900063343750      99.999996000000
      7122    1        6.240240562500      10.554597281250     101.951220000000
      7123    1        0.693359951562      10.554597281250      99.999996000000
      7124    1        2.080080187500      12.900063343750     101.951220000000
      7125    1        7.626961796876      12.900063343750     100.975608000000
      7126    1        3.466801421876      10.554597281250     100.975608000000
      7127    1       13.173840078124      12.900063343750      99.999996000000
      7128    1       14.560561312500      10.554597281250     101.951220000000
      7129    1        9.013679703124      10.554597281250      99.999996000000
      7130    1       10.400400937500      12.900063343750     101.951220000000
      7131    1       15.947282546876      12.900063343750     100.975608000000
      7132    1       11.787122171876      10.554597281250     100.975608000000
      7133    1       21.494160828124      12.900063343750      99.999996000000
      7134    1       22.880882062500      10.554597281250     101.951220000000
      7135    1       17.334000453124      10.554597281250      99.999996000000
      7136    1       18.720721687500      12.900063343750     101.951220000000
      7137    1       24.267603296876      12.900063343750     100.975608000000
      7138    1       20.107442921876      10.554597281250     100.975608000000
      7139    1       29.814481578124      12.900063343750      99.999996000000
      7140    1       31.201202812500      10.554597281250     101.951220000000
      7141    1       25.654321203124      10.554597281250      99.999996000000
      7142    1       27.041042437500      12.900063343750     101.951220000000
      7143    1       32.587924046876      12.900063343750     100.975608000000
      7144    1       28.427763671876      10.554597281250     100.975608000000
      7145    1        4.853519328124      17.590995468750      99.999996000000
      7146    1        6.240240562500      15.245529406250     101.951220000000
      7147    1        0.693359951562      15.245529406250      99.999996000000
      7148    1        2.080080187500      17.590995468750     101.951220000000
      7149    1        7.626961796876      17.590995468750     100.975608000000
      7150    1        3.466801421876      15.245529406250     100.975608000000
      7151    1       13.173840078124      17.590995468750      99.999996000000
      7152    1       14.560561312500      15.245529406250     101.951220000000
      7153    1        9.013679703124      15.245529406250      99.999996000000
      7154    1       10.400400937500      17.590995468750     101.951220000000
      7155    1       15.947282546876      17.590995468750     100.975608000000
      7156    1       11.787122171876      15.245529406250     100.975608000000
      7157    1       21.494160828124      17.590995468750      99.999996000000
      7158    1       22.880882062500      15.245529406250     101.951220000000
      7159    1       17.334000453124      15.245529406250      99.999996000000
      7160    1       18.720721687500      17.590995468750     101.951220000000
      7161    1       24.267603296876      17.590995468750     100.975608000000
      7162    1       20.107442921876      15.245529406250     100.975608000000
      7163    1       29.814481578124      17.590995468750      99.999996000000
      7164    1       31.201202812500      15.245529406250     101.951220000000
      7165    1       25.654321203124      15.245529406250      99.999996000000
      7166    1       27.041042437500      17.590995468750     101.951220000000
      7167    1       32.587924046876      17.590995468750     100.975608000000
      7168    1       28.427763671876      15.245529406250     100.975608000000
      7169    1        4.853519328124      22.281927593750      99.999996000000
      7170    1        6.240240562500      19.936461531250     101.951220000000
      7171    1        0.693359951562      19.936461531250      99.999996000000
      7172    1        2.080080187500      22.281927593750     101.951220000000
      7173    1        7.626961796876      22.281927593750     100.975608000000
      7174    1        3.466801421876      19.936461531250     100.975608000000
      7175    1       13.173840078124      22.281927593750      99.999996000000
      7176    1       14.560561312500      19.936461531250     101.951220000000
      7177    1        9.013679703124      19.936461531250      99.999996000000
      7178    1       10.400400937500      22.281927593750     101.951220000000
      7179    1       15.947282546876      22.281927593750     100.975608000000
      7180    1       11.787122171876      19.936461531250     100.975608000000
      7181    1       21.494160828124      22.281927593750      99.999996000000
      7182    1       22.880882062500      19.936461531250     101.951220000000
      7183    1       17.334000453124      19.936461531250      99.999996000000
      7184    1       18.720721687500      22.281927593750     101.951220000000
      7185    1       24.267603296876      22.281927593750     100.975608000000
      7186    1       20.107442921876      19.936461531250     100.975608000000
      7187    1       29.814481578124      22.281927593750      99.999996000000
      7188    1       31.201202812500      19.936461531250     101.951220000000
      7189    1       25.654321203124      19.936461531250      99.999996000000
      7190    1       27.041042437500      22.281927593750     101.951220000000
      7191    1       32.587924046876      22.281927593750     100.975608000000
      7192    1       28.427763671876      19.936461531250     100.975608000000
      7193    1        4.853519328124      26.972859718750      99.999996000000
      7194    1        6.240240562500      24.627393656250     101.951220000000
      7195    1        0.693359951562      24.627393656250      99.999996000000
      7196    1        2.080080187500      26.972859718750     101.951220000000
      7197    1        7.626961796876      26.972859718750     100.975608000000
      7198    1        3.466801421876      24.627393656250     100.975608000000
      7199    1       13.173840078124      26.972859718750      99.999996000000
      7200    1       14.560561312500      24.627393656250     101.951220000000
      7201    1        9.013679703124      24.627393656250      99.999996000000
      7202    1       10.400400937500      26.972859718750     101.951220000000
      7203    1       15.947282546876      26.972859718750     100.975608000000
      7204    1       11.787122171876      24.627393656250     100.975608000000
      7205    1       21.494160828124      26.972859718750      99.999996000000
      7206    1       22.880882062500      24.627393656250     101.951220000000
      7207    1       17.334000453124      24.627393656250      99.999996000000
      7208    1       18.720721687500      26.972859718750     101.951220000000
      7209    1       24.267603296876      26.972859718750     100.975608000000
      7210    1       20.107442921876      24.627393656250     100.975608000000
      7211    1       29.814481578124      26.972859718750      99.999996000000
      7212    1       31.201202812500      24.627393656250     101.951220000000
      7213    1       25.654321203124      24.627393656250      99.999996000000
      7214    1       27.041042437500      26.972859718750     101.951220000000
      7215    1       32.587924046876      26.972859718750     100.975608000000
      7216    1       28.427763671876      24.627393656250     100.975608000000
      7217    1        4.853519328124      31.663791843750      99.999996000000
      7218    1        6.240240562500      29.318325781250     101.951220000000
      7219    1        0.693359951562      29.318325781250      99.999996000000
      7220    1        2.080080187500      31.663791843750     101.951220000000
      7221    1        7.626961796876      31.663791843750     100.975608000000
      7222    1        3.466801421876      29.318325781250     100.975608000000
      7223    1       13.173840078124      31.663791843750      99.999996000000
      7224    1       14.560561312500      29.318325781250     101.951220000000
      7225    1        9.013679703124      29.318325781250      99.999996000000
      7226    1       10.400400937500      31.663791843750     101.951220000000
      7227    1       15.947282546876      31.663791843750     100.975608000000
      7228    1       11.787122171876      29.318325781250     100.975608000000
      7229    1       21.494160828124      31.663791843750      99.999996000000
      7230    1       22.880882062500      29.318325781250     101.951220000000
      7231    1       17.334000453124      29.318325781250      99.999996000000
      7232    1       18.720721687500      31.663791843750     101.951220000000
      7233    1       24.267603296876      31.663791843750     100.975608000000
      7234    1       20.107442921876      29.318325781250     100.975608000000
      7235    1       29.814481578124      31.663791843750      99.999996000000
      7236    1       31.201202812500      29.318325781250     101.951220000000
      7237    1       25.654321203124      29.318325781250      99.999996000000
      7238    1       27.041042437500      31.663791843750     101.951220000000
      7239    1       32.587924046876      31.663791843750     100.975608000000
      7240    1       28.427763671876      29.318325781250     100.975608000000
      7241    1        4.853519328124      36.354723968750      99.999996000000
      7242    1        6.240240562500      34.009257906250     101.951220000000
      7243    1        0.693359951562      34.009257906250      99.999996000000
      7244    1        2.080080187500      36.354723968750     101.951220000000
      7245    1        7.626961796876      36.354723968750     100.975608000000
      7246    1        3.466801421876      34.009257906250     100.975608000000
      7247    1       13.173840078124      36.354723968750      99.999996000000
      7248    1       14.560561312500      34.009257906250     101.951220000000
      7249    1        9.013679703124      34.009257906250      99.999996000000
      7250    1       10.400400937500      36.354723968750     101.951220000000
      7251    1       15.947282546876      36.354723968750     100.975608000000
      7252    1       11.787122171876      34.009257906250     100.975608000000
      7253    1       21.494160828124      36.354723968750      99.999996000000
      7254    1       22.880882062500      34.009257906250     101.951220000000
      7255    1       17.334000453124      34.009257906250      99.999996000000
      7256    1       18.720721687500      36.354723968750     101.951220000000
      7257    1       24.267603296876      36.354723968750     100.975608000000
      7258    1       20.107442921876      34.009257906250     100.975608000000
      7259    1       29.814481578124      36.354723968750      99.999996000000
      7260    1       31.201202812500      34.009257906250     101.951220000000
      7261    1       25.654321203124      34.009257906250      99.999996000000
      7262    1       27.041042437500      36.354723968750     101.951220000000
      7263    1       32.587924046876      36.354723968750     100.975608000000
      7264    1       28.427763671876      34.009257906250     100.975608000000
      7265    1        4.853519328124       3.518199093750     102.926832000000
      7266    1        6.240240562500       1.172733031250     104.878044000000
      7267    1        0.693359951562       1.172733031250     102.926832000000
      7268    1        2.080080187500       3.518199093750     104.878044000000
      7269    1        7.626961796876       3.518199093750     103.902444000000
      7270    1        3.466801421876       1.172733031250     103.902444000000
      7271    1       13.173840078124       3.518199093750     102.926832000000
      7272    1       14.560561312500       1.172733031250     104.878044000000
      7273    1        9.013679703124       1.172733031250     102.926832000000
      7274    1       10.400400937500       3.518199093750     104.878044000000
      7275    1       15.947282546876       3.518199093750     103.902444000000
      7276    1       11.787122171876       1.172733031250     103.902444000000
      7277    1       21.494160828124       3.518199093750     102.926832000000
      7278    1       22.880882062500       1.172733031250     104.878044000000
      7279    1       17.334000453124       1.172733031250     102.926832000000
      7280    1       18.720721687500       3.518199093750     104.878044000000
      7281    1       24.267603296876       3.518199093750     103.902444000000
      7282    1       20.107442921876       1.172733031250     103.902444000000
      7283    1       29.814481578124       3.518199093750     102.926832000000
      7284    1       31.201202812500       1.172733031250     104.878044000000
      7285    1       25.654321203124       1.172733031250     102.926832000000
      7286    1       27.041042437500       3.518199093750     104.878044000000
      7287    1       32.587924046876       3.518199093750     103.902444000000
      7288    1       28.427763671876       1.172733031250     103.902444000000
      7289    1        4.853519328124       8.209131218750     102.926832000000
      7290    1        6.240240562500       5.863665156250     104.878044000000
      7291    1        0.693359951562       5.863665156250     102.926832000000
      7292    1        2.080080187500       8.209131218750     104.878044000000
      7293    1        7.626961796876       8.209131218750     103.902444000000
      7294    1        3.466801421876       5.863665156250     103.902444000000
      7295    1       13.173840078124       8.209131218750     102.926832000000
      7296    1       14.560561312500       5.863665156250     104.878044000000
      7297    1        9.013679703124       5.863665156250     102.926832000000
      7298    1       10.400400937500       8.209131218750     104.878044000000
      7299    1       15.947282546876       8.209131218750     103.902444000000
      7300    1       11.787122171876       5.863665156250     103.902444000000
      7301    1       21.494160828124       8.209131218750     102.926832000000
      7302    1       22.880882062500       5.863665156250     104.878044000000
      7303    1       17.334000453124       5.863665156250     102.926832000000
      7304    1       18.720721687500       8.209131218750     104.878044000000
      7305    1       24.267603296876       8.209131218750     103.902444000000
      7306    1       20.107442921876       5.863665156250     103.902444000000
      7307    1       29.814481578124       8.209131218750     102.926832000000
      7308    1       31.201202812500       5.863665156250     104.878044000000
      7309    1       25.654321203124       5.863665156250     102.926832000000
      7310    1       27.041042437500       8.209131218750     104.878044000000
      7311    1       32.587924046876       8.209131218750     103.902444000000
      7312    1       28.427763671876       5.863665156250     103.902444000000
      7313    1        4.853519328124      12.900063343750     102.926832000000
      7314    1        6.240240562500      10.554597281250     104.878044000000
      7315    1        0.693359951562      10.554597281250     102.926832000000
      7316    1        2.080080187500      12.900063343750     104.878044000000
      7317    1        7.626961796876      12.900063343750     103.902444000000
      7318    1        3.466801421876      10.554597281250     103.902444000000
      7319    1       13.173840078124      12.900063343750     102.926832000000
      7320    1       14.560561312500      10.554597281250     104.878044000000
      7321    1        9.013679703124      10.554597281250     102.926832000000
      7322    1       10.400400937500      12.900063343750     104.878044000000
      7323    1       15.947282546876      12.900063343750     103.902444000000
      7324    1       11.787122171876      10.554597281250     103.902444000000
      7325    1       21.494160828124      12.900063343750     102.926832000000
      7326    1       22.880882062500      10.554597281250     104.878044000000
      7327    1       17.334000453124      10.554597281250     102.926832000000
      7328    1       18.720721687500      12.900063343750     104.878044000000
      7329    1       24.267603296876      12.900063343750     103.902444000000
      7330    1       20.107442921876      10.554597281250     103.902444000000
      7331    1       29.814481578124      12.900063343750     102.926832000000
      7332    1       31.201202812500      10.554597281250     104.878044000000
      7333    1       25.654321203124      10.554597281250     102.926832000000
      7334    1       27.041042437500      12.900063343750     104.878044000000
      7335    1       32.587924046876      12.900063343750     103.902444000000
      7336    1       28.427763671876      10.554597281250     103.902444000000
      7337    1        4.853519328124      17.590995468750     102.926832000000
      7338    1        6.240240562500      15.245529406250     104.878044000000
      7339    1        0.693359951562      15.245529406250     102.926832000000
      7340    1        2.080080187500      17.590995468750     104.878044000000
      7341    1        7.626961796876      17.590995468750     103.902444000000
      7342    1        3.466801421876      15.245529406250     103.902444000000
      7343    1       13.173840078124      17.590995468750     102.926832000000
      7344    1       14.560561312500      15.245529406250     104.878044000000
      7345    1        9.013679703124      15.245529406250     102.926832000000
      7346    1       10.400400937500      17.590995468750     104.878044000000
      7347    1       15.947282546876      17.590995468750     103.902444000000
      7348    1       11.787122171876      15.245529406250     103.902444000000
      7349    1       21.494160828124      17.590995468750     102.926832000000
      7350    1       22.880882062500      15.245529406250     104.878044000000
      7351    1       17.334000453124      15.245529406250     102.926832000000
      7352    1       18.720721687500      17.590995468750     104.878044000000
      7353    1       24.267603296876      17.590995468750     103.902444000000
      7354    1       20.107442921876      15.245529406250     103.902444000000
      7355    1       29.814481578124      17.590995468750     102.926832000000
      7356    1       31.201202812500      15.245529406250     104.878044000000
      7357    1       25.654321203124      15.245529406250     102.926832000000
      7358    1       27.041042437500      17.590995468750     104.878044000000
      7359    1       32.587924046876      17.590995468750     103.902444000000
      7360    1       28.427763671876      15.245529406250     103.902444000000
      7361    1        4.853519328124      22.281927593750     102.926832000000
      7362    1        6.240240562500      19.936461531250     104.878044000000
      7363    1        0.693359951562      19.936461531250     102.926832000000
      7364    1        2.080080187500      22.281927593750     104.878044000000
      7365    1        7.626961796876      22.281927593750     103.902444000000
      7366    1        3.466801421876      19.936461531250     103.902444000000
      7367    1       13.173840078124      22.281927593750     102.926832000000
      7368    1       14.560561312500      19.936461531250     104.878044000000
      7369    1        9.013679703124      19.936461531250     102.926832000000
      7370    1       10.400400937500      22.281927593750     104.878044000000
      7371    1       15.947282546876      22.281927593750     103.902444000000
      7372    1       11.787122171876      19.936461531250     103.902444000000
      7373    1       21.494160828124      22.281927593750     102.926832000000
      7374    1       22.880882062500      19.936461531250     104.878044000000
      7375    1       17.334000453124      19.936461531250     102.926832000000
      7376    1       18.720721687500      22.281927593750     104.878044000000
      7377    1       24.267603296876      22.281927593750     103.902444000000
      7378    1       20.107442921876      19.936461531250     103.902444000000
      7379    1       29.814481578124      22.281927593750     102.926832000000
      7380    1       31.201202812500      19.936461531250     104.878044000000
      7381    1       25.654321203124      19.936461531250     102.926832000000
      7382    1       27.041042437500      22.281927593750     104.878044000000
      7383    1       32.587924046876      22.281927593750     103.902444000000
      7384    1       28.427763671876      19.936461531250     103.902444000000
      7385    1        4.853519328124      26.972859718750     102.926832000000
      7386    1        6.240240562500      24.627393656250     104.878044000000
      7387    1        0.693359951562      24.627393656250     102.926832000000
      7388    1        2.080080187500      26.972859718750     104.878044000000
      7389    1        7.626961796876      26.972859718750     103.902444000000
      7390    1        3.466801421876      24.627393656250     103.902444000000
      7391    1       13.173840078124      26.972859718750     102.926832000000
      7392    1       14.560561312500      24.627393656250     104.878044000000
      7393    1        9.013679703124      24.627393656250     102.926832000000
      7394    1       10.400400937500      26.972859718750     104.878044000000
      7395    1       15.947282546876      26.972859718750     103.902444000000
      7396    1       11.787122171876      24.627393656250     103.902444000000
      7397    1       21.494160828124      26.972859718750     102.926832000000
      7398    1       22.880882062500      24.627393656250     104.878044000000
      7399    1       17.334000453124      24.627393656250     102.926832000000
      7400    1       18.720721687500      26.972859718750     104.878044000000
      7401    1       24.267603296876      26.972859718750     103.902444000000
      7402    1       20.107442921876      24.627393656250     103.902444000000
      7403    1       29.814481578124      26.972859718750     102.926832000000
      7404    1       31.201202812500      24.627393656250     104.878044000000
      7405    1       25.654321203124      24.627393656250     102.926832000000
      7406    1       27.041042437500      26.972859718750     104.878044000000
      7407    1       32.587924046876      26.972859718750     103.902444000000
      7408    1       28.427763671876      24.627393656250     103.902444000000
      7409    1        4.853519328124      31.663791843750     102.926832000000
      7410    1        6.240240562500      29.318325781250     104.878044000000
      7411    1        0.693359951562      29.318325781250     102.926832000000
      7412    1        2.080080187500      31.663791843750     104.878044000000
      7413    1        7.626961796876      31.663791843750     103.902444000000
      7414    1        3.466801421876      29.318325781250     103.902444000000
      7415    1       13.173840078124      31.663791843750     102.926832000000
      7416    1       14.560561312500      29.318325781250     104.878044000000
      7417    1        9.013679703124      29.318325781250     102.926832000000
      7418    1       10.400400937500      31.663791843750     104.878044000000
      7419    1       15.947282546876      31.663791843750     103.902444000000
      7420    1       11.787122171876      29.318325781250     103.902444000000
      7421    1       21.494160828124      31.663791843750     102.926832000000
      7422    1       22.880882062500      29.318325781250     104.878044000000
      7423    1       17.334000453124      29.318325781250     102.926832000000
      7424    1       18.720721687500      31.663791843750     104.878044000000
      7425    1       24.267603296876      31.663791843750     103.902444000000
      7426    1       20.107442921876      29.318325781250     103.902444000000
      7427    1       29.814481578124      31.663791843750     102.926832000000
      7428    1       31.201202812500      29.318325781250     104.878044000000
      7429    1       25.654321203124      29.318325781250     102.926832000000
      7430    1       27.041042437500      31.663791843750     104.878044000000
      7431    1       32.587924046876      31.663791843750     103.902444000000
      7432    1       28.427763671876      29.318325781250     103.902444000000
      7433    1        4.853519328124      36.354723968750     102.926832000000
      7434    1        6.240240562500      34.009257906250     104.878044000000
      7435    1        0.693359951562      34.009257906250     102.926832000000
      7436    1        2.080080187500      36.354723968750     104.878044000000
      7437    1        7.626961796876      36.354723968750     103.902444000000
      7438    1        3.466801421876      34.009257906250     103.902444000000
      7439    1       13.173840078124      36.354723968750     102.926832000000
      7440    1       14.560561312500      34.009257906250     104.878044000000
      7441    1        9.013679703124      34.009257906250     102.926832000000
      7442    1       10.400400937500      36.354723968750     104.878044000000
      7443    1       15.947282546876      36.354723968750     103.902444000000
      7444    1       11.787122171876      34.009257906250     103.902444000000
      7445    1       21.494160828124      36.354723968750     102.926832000000
      7446    1       22.880882062500      34.009257906250     104.878044000000
      7447    1       17.334000453124      34.009257906250     102.926832000000
      7448    1       18.720721687500      36.354723968750     104.878044000000
      7449    1       24.267603296876      36.354723968750     103.902444000000
      7450    1       20.107442921876      34.009257906250     103.902444000000
      7451    1       29.814481578124      36.354723968750     102.926832000000
      7452    1       31.201202812500      34.009257906250     104.878044000000
      7453    1       25.654321203124      34.009257906250     102.926832000000
      7454    1       27.041042437500      36.354723968750     104.878044000000
      7455    1       32.587924046876      36.354723968750     103.902444000000
      7456    1       28.427763671876      34.009257906250     103.902444000000
      7457    1        4.853519328124       3.518199093750     105.853656000000
      7458    1        6.240240562500       1.172733031250     107.804880000000
      7459    1        0.693359951562       1.172733031250     105.853656000000
      7460    1        2.080080187500       3.518199093750     107.804880000000
      7461    1        7.626961796876       3.518199093750     106.829268000000
      7462    1        3.466801421876       1.172733031250     106.829268000000
      7463    1       13.173840078124       3.518199093750     105.853656000000
      7464    1       14.560561312500       1.172733031250     107.804880000000
      7465    1        9.013679703124       1.172733031250     105.853656000000
      7466    1       10.400400937500       3.518199093750     107.804880000000
      7467    1       15.947282546876       3.518199093750     106.829268000000
      7468    1       11.787122171876       1.172733031250     106.829268000000
      7469    1       21.494160828124       3.518199093750     105.853656000000
      7470    1       22.880882062500       1.172733031250     107.804880000000
      7471    1       17.334000453124       1.172733031250     105.853656000000
      7472    1       18.720721687500       3.518199093750     107.804880000000
      7473    1       24.267603296876       3.518199093750     106.829268000000
      7474    1       20.107442921876       1.172733031250     106.829268000000
      7475    1       29.814481578124       3.518199093750     105.853656000000
      7476    1       31.201202812500       1.172733031250     107.804880000000
      7477    1       25.654321203124       1.172733031250     105.853656000000
      7478    1       27.041042437500       3.518199093750     107.804880000000
      7479    1       32.587924046876       3.518199093750     106.829268000000
      7480    1       28.427763671876       1.172733031250     106.829268000000
      7481    1        4.853519328124       8.209131218750     105.853656000000
      7482    1        6.240240562500       5.863665156250     107.804880000000
      7483    1        0.693359951562       5.863665156250     105.853656000000
      7484    1        2.080080187500       8.209131218750     107.804880000000
      7485    1        7.626961796876       8.209131218750     106.829268000000
      7486    1        3.466801421876       5.863665156250     106.829268000000
      7487    1       13.173840078124       8.209131218750     105.853656000000
      7488    1       14.560561312500       5.863665156250     107.804880000000
      7489    1        9.013679703124       5.863665156250     105.853656000000
      7490    1       10.400400937500       8.209131218750     107.804880000000
      7491    1       15.947282546876       8.209131218750     106.829268000000
      7492    1       11.787122171876       5.863665156250     106.829268000000
      7493    1       21.494160828124       8.209131218750     105.853656000000
      7494    1       22.880882062500       5.863665156250     107.804880000000
      7495    1       17.334000453124       5.863665156250     105.853656000000
      7496    1       18.720721687500       8.209131218750     107.804880000000
      7497    1       24.267603296876       8.209131218750     106.829268000000
      7498    1       20.107442921876       5.863665156250     106.829268000000
      7499    1       29.814481578124       8.209131218750     105.853656000000
      7500    1       31.201202812500       5.863665156250     107.804880000000
      7501    1       25.654321203124       5.863665156250     105.853656000000
      7502    1       27.041042437500       8.209131218750     107.804880000000
      7503    1       32.587924046876       8.209131218750     106.829268000000
      7504    1       28.427763671876       5.863665156250     106.829268000000
      7505    1        4.853519328124      12.900063343750     105.853656000000
      7506    1        6.240240562500      10.554597281250     107.804880000000
      7507    1        0.693359951562      10.554597281250     105.853656000000
      7508    1        2.080080187500      12.900063343750     107.804880000000
      7509    1        7.626961796876      12.900063343750     106.829268000000
      7510    1        3.466801421876      10.554597281250     106.829268000000
      7511    1       13.173840078124      12.900063343750     105.853656000000
      7512    1       14.560561312500      10.554597281250     107.804880000000
      7513    1        9.013679703124      10.554597281250     105.853656000000
      7514    1       10.400400937500      12.900063343750     107.804880000000
      7515    1       15.947282546876      12.900063343750     106.829268000000
      7516    1       11.787122171876      10.554597281250     106.829268000000
      7517    1       21.494160828124      12.900063343750     105.853656000000
      7518    1       22.880882062500      10.554597281250     107.804880000000
      7519    1       17.334000453124      10.554597281250     105.853656000000
      7520    1       18.720721687500      12.900063343750     107.804880000000
      7521    1       24.267603296876      12.900063343750     106.829268000000
      7522    1       20.107442921876      10.554597281250     106.829268000000
      7523    1       29.814481578124      12.900063343750     105.853656000000
      7524    1       31.201202812500      10.554597281250     107.804880000000
      7525    1       25.654321203124      10.554597281250     105.853656000000
      7526    1       27.041042437500      12.900063343750     107.804880000000
      7527    1       32.587924046876      12.900063343750     106.829268000000
      7528    1       28.427763671876      10.554597281250     106.829268000000
      7529    1        4.853519328124      17.590995468750     105.853656000000
      7530    1        6.240240562500      15.245529406250     107.804880000000
      7531    1        0.693359951562      15.245529406250     105.853656000000
      7532    1        2.080080187500      17.590995468750     107.804880000000
      7533    1        7.626961796876      17.590995468750     106.829268000000
      7534    1        3.466801421876      15.245529406250     106.829268000000
      7535    1       13.173840078124      17.590995468750     105.853656000000
      7536    1       14.560561312500      15.245529406250     107.804880000000
      7537    1        9.013679703124      15.245529406250     105.853656000000
      7538    1       10.400400937500      17.590995468750     107.804880000000
      7539    1       15.947282546876      17.590995468750     106.829268000000
      7540    1       11.787122171876      15.245529406250     106.829268000000
      7541    1       21.494160828124      17.590995468750     105.853656000000
      7542    1       22.880882062500      15.245529406250     107.804880000000
      7543    1       17.334000453124      15.245529406250     105.853656000000
      7544    1       18.720721687500      17.590995468750     107.804880000000
      7545    1       24.267603296876      17.590995468750     106.829268000000
      7546    1       20.107442921876      15.245529406250     106.829268000000
      7547    1       29.814481578124      17.590995468750     105.853656000000
      7548    1       31.201202812500      15.245529406250     107.804880000000
      7549    1       25.654321203124      15.245529406250     105.853656000000
      7550    1       27.041042437500      17.590995468750     107.804880000000
      7551    1       32.587924046876      17.590995468750     106.829268000000
      7552    1       28.427763671876      15.245529406250     106.829268000000
      7553    1        4.853519328124      22.281927593750     105.853656000000
      7554    1        6.240240562500      19.936461531250     107.804880000000
      7555    1        0.693359951562      19.936461531250     105.853656000000
      7556    1        2.080080187500      22.281927593750     107.804880000000
      7557    1        7.626961796876      22.281927593750     106.829268000000
      7558    1        3.466801421876      19.936461531250     106.829268000000
      7559    1       13.173840078124      22.281927593750     105.853656000000
      7560    1       14.560561312500      19.936461531250     107.804880000000
      7561    1        9.013679703124      19.936461531250     105.853656000000
      7562    1       10.400400937500      22.281927593750     107.804880000000
      7563    1       15.947282546876      22.281927593750     106.829268000000
      7564    1       11.787122171876      19.936461531250     106.829268000000
      7565    1       21.494160828124      22.281927593750     105.853656000000
      7566    1       22.880882062500      19.936461531250     107.804880000000
      7567    1       17.334000453124      19.936461531250     105.853656000000
      7568    1       18.720721687500      22.281927593750     107.804880000000
      7569    1       24.267603296876      22.281927593750     106.829268000000
      7570    1       20.107442921876      19.936461531250     106.829268000000
      7571    1       29.814481578124      22.281927593750     105.853656000000
      7572    1       31.201202812500      19.936461531250     107.804880000000
      7573    1       25.654321203124      19.936461531250     105.853656000000
      7574    1       27.041042437500      22.281927593750     107.804880000000
      7575    1       32.587924046876      22.281927593750     106.829268000000
      7576    1       28.427763671876      19.936461531250     106.829268000000
      7577    1        4.853519328124      26.972859718750     105.853656000000
      7578    1        6.240240562500      24.627393656250     107.804880000000
      7579    1        0.693359951562      24.627393656250     105.853656000000
      7580    1        2.080080187500      26.972859718750     107.804880000000
      7581    1        7.626961796876      26.972859718750     106.829268000000
      7582    1        3.466801421876      24.627393656250     106.829268000000
      7583    1       13.173840078124      26.972859718750     105.853656000000
      7584    1       14.560561312500      24.627393656250     107.804880000000
      7585    1        9.013679703124      24.627393656250     105.853656000000
      7586    1       10.400400937500      26.972859718750     107.804880000000
      7587    1       15.947282546876      26.972859718750     106.829268000000
      7588    1       11.787122171876      24.627393656250     106.829268000000
      7589    1       21.494160828124      26.972859718750     105.853656000000
      7590    1       22.880882062500      24.627393656250     107.804880000000
      7591    1       17.334000453124      24.627393656250     105.853656000000
      7592    1       18.720721687500      26.972859718750     107.804880000000
      7593    1       24.267603296876      26.972859718750     106.829268000000
      7594    1       20.107442921876      24.627393656250     106.829268000000
      7595    1       29.814481578124      26.972859718750     105.853656000000
      7596    1       31.201202812500      24.627393656250     107.804880000000
      7597    1       25.654321203124      24.627393656250     105.853656000000
      7598    1       27.041042437500      26.972859718750     107.804880000000
      7599    1       32.587924046876      26.972859718750     106.829268000000
      7600    1       28.427763671876      24.627393656250     106.829268000000
      7601    1        4.853519328124      31.663791843750     105.853656000000
      7602    1        6.240240562500      29.318325781250     107.804880000000
      7603    1        0.693359951562      29.318325781250     105.853656000000
      7604    1        2.080080187500      31.663791843750     107.804880000000
      7605    1        7.626961796876      31.663791843750     106.829268000000
      7606    1        3.466801421876      29.318325781250     106.829268000000
      7607    1       13.173840078124      31.663791843750     105.853656000000
      7608    1       14.560561312500      29.318325781250     107.804880000000
      7609    1        9.013679703124      29.318325781250     105.853656000000
      7610    1       10.400400937500      31.663791843750     107.804880000000
      7611    1       15.947282546876      31.663791843750     106.829268000000
      7612    1       11.787122171876      29.318325781250     106.829268000000
      7613    1       21.494160828124      31.663791843750     105.853656000000
      7614    1       22.880882062500      29.318325781250     107.804880000000
      7615    1       17.334000453124      29.318325781250     105.853656000000
      7616    1       18.720721687500      31.663791843750     107.804880000000
      7617    1       24.267603296876      31.663791843750     106.829268000000
      7618    1       20.107442921876      29.318325781250     106.829268000000
      7619    1       29.814481578124      31.663791843750     105.853656000000
      7620    1       31.201202812500      29.318325781250     107.804880000000
      7621    1       25.654321203124      29.318325781250     105.853656000000
      7622    1       27.041042437500      31.663791843750     107.804880000000
      7623    1       32.587924046876      31.663791843750     106.829268000000
      7624    1       28.427763671876      29.318325781250     106.829268000000
      7625    1        4.853519328124      36.354723968750     105.853656000000
      7626    1        6.240240562500      34.009257906250     107.804880000000
      7627    1        0.693359951562      34.009257906250     105.853656000000
      7628    1        2.080080187500      36.354723968750     107.804880000000
      7629    1        7.626961796876      36.354723968750     106.829268000000
      7630    1        3.466801421876      34.009257906250     106.829268000000
      7631    1       13.173840078124      36.354723968750     105.853656000000
      7632    1       14.560561312500      34.009257906250     107.804880000000
      7633    1        9.013679703124      34.009257906250     105.853656000000
      7634    1       10.400400937500      36.354723968750     107.804880000000
      7635    1       15.947282546876      36.354723968750     106.829268000000
      7636    1       11.787122171876      34.009257906250     106.829268000000
      7637    1       21.494160828124      36.354723968750     105.853656000000
      7638    1       22.880882062500      34.009257906250     107.804880000000
      7639    1       17.334000453124      34.009257906250     105.853656000000
      7640    1       18.720721687500      36.354723968750     107.804880000000
      7641    1       24.267603296876      36.354723968750     106.829268000000
      7642    1       20.107442921876      34.009257906250     106.829268000000
      7643    1       29.814481578124      36.354723968750     105.853656000000
      7644    1       31.201202812500      34.009257906250     107.804880000000
      7645    1       25.654321203124      34.009257906250     105.853656000000
      7646    1       27.041042437500      36.354723968750     107.804880000000
      7647    1       32.587924046876      36.354723968750     106.829268000000
      7648    1       28.427763671876      34.009257906250     106.829268000000
      7649    1        4.853519328124       3.518199093750     108.780492000000
      7650    1        6.240240562500       1.172733031250     110.731704000000
      7651    1        0.693359951562       1.172733031250     108.780492000000
      7652    1        2.080080187500       3.518199093750     110.731704000000
      7653    1        7.626961796876       3.518199093750     109.756104000000
      7654    1        3.466801421876       1.172733031250     109.756104000000
      7655    1       13.173840078124       3.518199093750     108.780492000000
      7656    1       14.560561312500       1.172733031250     110.731704000000
      7657    1        9.013679703124       1.172733031250     108.780492000000
      7658    1       10.400400937500       3.518199093750     110.731704000000
      7659    1       15.947282546876       3.518199093750     109.756104000000
      7660    1       11.787122171876       1.172733031250     109.756104000000
      7661    1       21.494160828124       3.518199093750     108.780492000000
      7662    1       22.880882062500       1.172733031250     110.731704000000
      7663    1       17.334000453124       1.172733031250     108.780492000000
      7664    1       18.720721687500       3.518199093750     110.731704000000
      7665    1       24.267603296876       3.518199093750     109.756104000000
      7666    1       20.107442921876       1.172733031250     109.756104000000
      7667    1       29.814481578124       3.518199093750     108.780492000000
      7668    1       31.201202812500       1.172733031250     110.731704000000
      7669    1       25.654321203124       1.172733031250     108.780492000000
      7670    1       27.041042437500       3.518199093750     110.731704000000
      7671    1       32.587924046876       3.518199093750     109.756104000000
      7672    1       28.427763671876       1.172733031250     109.756104000000
      7673    1        4.853519328124       8.209131218750     108.780492000000
      7674    1        6.240240562500       5.863665156250     110.731704000000
      7675    1        0.693359951562       5.863665156250     108.780492000000
      7676    1        2.080080187500       8.209131218750     110.731704000000
      7677    1        7.626961796876       8.209131218750     109.756104000000
      7678    1        3.466801421876       5.863665156250     109.756104000000
      7679    1       13.173840078124       8.209131218750     108.780492000000
      7680    1       14.560561312500       5.863665156250     110.731704000000
      7681    1        9.013679703124       5.863665156250     108.780492000000
      7682    1       10.400400937500       8.209131218750     110.731704000000
      7683    1       15.947282546876       8.209131218750     109.756104000000
      7684    1       11.787122171876       5.863665156250     109.756104000000
      7685    1       21.494160828124       8.209131218750     108.780492000000
      7686    1       22.880882062500       5.863665156250     110.731704000000
      7687    1       17.334000453124       5.863665156250     108.780492000000
      7688    1       18.720721687500       8.209131218750     110.731704000000
      7689    1       24.267603296876       8.209131218750     109.756104000000
      7690    1       20.107442921876       5.863665156250     109.756104000000
      7691    1       29.814481578124       8.209131218750     108.780492000000
      7692    1       31.201202812500       5.863665156250     110.731704000000
      7693    1       25.654321203124       5.863665156250     108.780492000000
      7694    1       27.041042437500       8.209131218750     110.731704000000
      7695    1       32.587924046876       8.209131218750     109.756104000000
      7696    1       28.427763671876       5.863665156250     109.756104000000
      7697    1        4.853519328124      12.900063343750     108.780492000000
      7698    1        6.240240562500      10.554597281250     110.731704000000
      7699    1        0.693359951562      10.554597281250     108.780492000000
      7700    1        2.080080187500      12.900063343750     110.731704000000
      7701    1        7.626961796876      12.900063343750     109.756104000000
      7702    1        3.466801421876      10.554597281250     109.756104000000
      7703    1       13.173840078124      12.900063343750     108.780492000000
      7704    1       14.560561312500      10.554597281250     110.731704000000
      7705    1        9.013679703124      10.554597281250     108.780492000000
      7706    1       10.400400937500      12.900063343750     110.731704000000
      7707    1       15.947282546876      12.900063343750     109.756104000000
      7708    1       11.787122171876      10.554597281250     109.756104000000
      7709    1       21.494160828124      12.900063343750     108.780492000000
      7710    1       22.880882062500      10.554597281250     110.731704000000
      7711    1       17.334000453124      10.554597281250     108.780492000000
      7712    1       18.720721687500      12.900063343750     110.731704000000
      7713    1       24.267603296876      12.900063343750     109.756104000000
      7714    1       20.107442921876      10.554597281250     109.756104000000
      7715    1       29.814481578124      12.900063343750     108.780492000000
      7716    1       31.201202812500      10.554597281250     110.731704000000
      7717    1       25.654321203124      10.554597281250     108.780492000000
      7718    1       27.041042437500      12.900063343750     110.731704000000
      7719    1       32.587924046876      12.900063343750     109.756104000000
      7720    1       28.427763671876      10.554597281250     109.756104000000
      7721    1        4.853519328124      17.590995468750     108.780492000000
      7722    1        6.240240562500      15.245529406250     110.731704000000
      7723    1        0.693359951562      15.245529406250     108.780492000000
      7724    1        2.080080187500      17.590995468750     110.731704000000
      7725    1        7.626961796876      17.590995468750     109.756104000000
      7726    1        3.466801421876      15.245529406250     109.756104000000
      7727    1       13.173840078124      17.590995468750     108.780492000000
      7728    1       14.560561312500      15.245529406250     110.731704000000
      7729    1        9.013679703124      15.245529406250     108.780492000000
      7730    1       10.400400937500      17.590995468750     110.731704000000
      7731    1       15.947282546876      17.590995468750     109.756104000000
      7732    1       11.787122171876      15.245529406250     109.756104000000
      7733    1       21.494160828124      17.590995468750     108.780492000000
      7734    1       22.880882062500      15.245529406250     110.731704000000
      7735    1       17.334000453124      15.245529406250     108.780492000000
      7736    1       18.720721687500      17.590995468750     110.731704000000
      7737    1       24.267603296876      17.590995468750     109.756104000000
      7738    1       20.107442921876      15.245529406250     109.756104000000
      7739    1       29.814481578124      17.590995468750     108.780492000000
      7740    1       31.201202812500      15.245529406250     110.731704000000
      7741    1       25.654321203124      15.245529406250     108.780492000000
      7742    1       27.041042437500      17.590995468750     110.731704000000
      7743    1       32.587924046876      17.590995468750     109.756104000000
      7744    1       28.427763671876      15.245529406250     109.756104000000
      7745    1        4.853519328124      22.281927593750     108.780492000000
      7746    1        6.240240562500      19.936461531250     110.731704000000
      7747    1        0.693359951562      19.936461531250     108.780492000000
      7748    1        2.080080187500      22.281927593750     110.731704000000
      7749    1        7.626961796876      22.281927593750     109.756104000000
      7750    1        3.466801421876      19.936461531250     109.756104000000
      7751    1       13.173840078124      22.281927593750     108.780492000000
      7752    1       14.560561312500      19.936461531250     110.731704000000
      7753    1        9.013679703124      19.936461531250     108.780492000000
      7754    1       10.400400937500      22.281927593750     110.731704000000
      7755    1       15.947282546876      22.281927593750     109.756104000000
      7756    1       11.787122171876      19.936461531250     109.756104000000
      7757    1       21.494160828124      22.281927593750     108.780492000000
      7758    1       22.880882062500      19.936461531250     110.731704000000
      7759    1       17.334000453124      19.936461531250     108.780492000000
      7760    1       18.720721687500      22.281927593750     110.731704000000
      7761    1       24.267603296876      22.281927593750     109.756104000000
      7762    1       20.107442921876      19.936461531250     109.756104000000
      7763    1       29.814481578124      22.281927593750     108.780492000000
      7764    1       31.201202812500      19.936461531250     110.731704000000
      7765    1       25.654321203124      19.936461531250     108.780492000000
      7766    1       27.041042437500      22.281927593750     110.731704000000
      7767    1       32.587924046876      22.281927593750     109.756104000000
      7768    1       28.427763671876      19.936461531250     109.756104000000
      7769    1        4.853519328124      26.972859718750     108.780492000000
      7770    1        6.240240562500      24.627393656250     110.731704000000
      7771    1        0.693359951562      24.627393656250     108.780492000000
      7772    1        2.080080187500      26.972859718750     110.731704000000
      7773    1        7.626961796876      26.972859718750     109.756104000000
      7774    1        3.466801421876      24.627393656250     109.756104000000
      7775    1       13.173840078124      26.972859718750     108.780492000000
      7776    1       14.560561312500      24.627393656250     110.731704000000
      7777    1        9.013679703124      24.627393656250     108.780492000000
      7778    1       10.400400937500      26.972859718750     110.731704000000
      7779    1       15.947282546876      26.972859718750     109.756104000000
      7780    1       11.787122171876      24.627393656250     109.756104000000
      7781    1       21.494160828124      26.972859718750     108.780492000000
      7782    1       22.880882062500      24.627393656250     110.731704000000
      7783    1       17.334000453124      24.627393656250     108.780492000000
      7784    1       18.720721687500      26.972859718750     110.731704000000
      7785    1       24.267603296876      26.972859718750     109.756104000000
      7786    1       20.107442921876      24.627393656250     109.756104000000
      7787    1       29.814481578124      26.972859718750     108.780492000000
      7788    1       31.201202812500      24.627393656250     110.731704000000
      7789    1       25.654321203124      24.627393656250     108.780492000000
      7790    1       27.041042437500      26.972859718750     110.731704000000
      7791    1       32.587924046876      26.972859718750     109.756104000000
      7792    1       28.427763671876      24.627393656250     109.756104000000
      7793    1        4.853519328124      31.663791843750     108.780492000000
      7794    1        6.240240562500      29.318325781250     110.731704000000
      7795    1        0.693359951562      29.318325781250     108.780492000000
      7796    1        2.080080187500      31.663791843750     110.731704000000
      7797    1        7.626961796876      31.663791843750     109.756104000000
      7798    1        3.466801421876      29.318325781250     109.756104000000
      7799    1       13.173840078124      31.663791843750     108.780492000000
      7800    1       14.560561312500      29.318325781250     110.731704000000
      7801    1        9.013679703124      29.318325781250     108.780492000000
      7802    1       10.400400937500      31.663791843750     110.731704000000
      7803    1       15.947282546876      31.663791843750     109.756104000000
      7804    1       11.787122171876      29.318325781250     109.756104000000
      7805    1       21.494160828124      31.663791843750     108.780492000000
      7806    1       22.880882062500      29.318325781250     110.731704000000
      7807    1       17.334000453124      29.318325781250     108.780492000000
      7808    1       18.720721687500      31.663791843750     110.731704000000
      7809    1       24.267603296876      31.663791843750     109.756104000000
      7810    1       20.107442921876      29.318325781250     109.756104000000
      7811    1       29.814481578124      31.663791843750     108.780492000000
      7812    1       31.201202812500      29.318325781250     110.731704000000
      7813    1       25.654321203124      29.318325781250     108.780492000000
      7814    1       27.041042437500      31.663791843750     110.731704000000
      7815    1       32.587924046876      31.663791843750     109.756104000000
      7816    1       28.427763671876      29.318325781250     109.756104000000
      7817    1        4.853519328124      36.354723968750     108.780492000000
      7818    1        6.240240562500      34.009257906250     110.731704000000
      7819    1        0.693359951562      34.009257906250     108.780492000000
      7820    1        2.080080187500      36.354723968750     110.731704000000
      7821    1        7.626961796876      36.354723968750     109.756104000000
      7822    1        3.466801421876      34.009257906250     109.756104000000
      7823    1       13.173840078124      36.354723968750     108.780492000000
      7824    1       14.560561312500      34.009257906250     110.731704000000
      7825    1        9.013679703124      34.009257906250     108.780492000000
      7826    1       10.400400937500      36.354723968750     110.731704000000
      7827    1       15.947282546876      36.354723968750     109.756104000000
      7828    1       11.787122171876      34.009257906250     109.756104000000
      7829    1       21.494160828124      36.354723968750     108.780492000000
      7830    1       22.880882062500      34.009257906250     110.731704000000
      7831    1       17.334000453124      34.009257906250     108.780492000000
      7832    1       18.720721687500      36.354723968750     110.731704000000
      7833    1       24.267603296876      36.354723968750     109.756104000000
      7834    1       20.107442921876      34.009257906250     109.756104000000
      7835    1       29.814481578124      36.354723968750     108.780492000000
      7836    1       31.201202812500      34.009257906250     110.731704000000
      7837    1       25.654321203124      34.009257906250     108.780492000000
      7838    1       27.041042437500      36.354723968750     110.731704000000
      7839    1       32.587924046876      36.354723968750     109.756104000000
      7840    1       28.427763671876      34.009257906250     109.756104000000
      7841    1        4.853519328124       3.518199093750     111.707316000000
      7842    1        6.240240562500       1.172733031250     113.658540000000
      7843    1        0.693359951562       1.172733031250     111.707316000000
      7844    1        2.080080187500       3.518199093750     113.658540000000
      7845    1        7.626961796876       3.518199093750     112.682928000000
      7846    1        3.466801421876       1.172733031250     112.682928000000
      7847    1       13.173840078124       3.518199093750     111.707316000000
      7848    1       14.560561312500       1.172733031250     113.658540000000
      7849    1        9.013679703124       1.172733031250     111.707316000000
      7850    1       10.400400937500       3.518199093750     113.658540000000
      7851    1       15.947282546876       3.518199093750     112.682928000000
      7852    1       11.787122171876       1.172733031250     112.682928000000
      7853    1       21.494160828124       3.518199093750     111.707316000000
      7854    1       22.880882062500       1.172733031250     113.658540000000
      7855    1       17.334000453124       1.172733031250     111.707316000000
      7856    1       18.720721687500       3.518199093750     113.658540000000
      7857    1       24.267603296876       3.518199093750     112.682928000000
      7858    1       20.107442921876       1.172733031250     112.682928000000
      7859    1       29.814481578124       3.518199093750     111.707316000000
      7860    1       31.201202812500       1.172733031250     113.658540000000
      7861    1       25.654321203124       1.172733031250     111.707316000000
      7862    1       27.041042437500       3.518199093750     113.658540000000
      7863    1       32.587924046876       3.518199093750     112.682928000000
      7864    1       28.427763671876       1.172733031250     112.682928000000
      7865    1        4.853519328124       8.209131218750     111.707316000000
      7866    1        6.240240562500       5.863665156250     113.658540000000
      7867    1        0.693359951562       5.863665156250     111.707316000000
      7868    1        2.080080187500       8.209131218750     113.658540000000
      7869    1        7.626961796876       8.209131218750     112.682928000000
      7870    1        3.466801421876       5.863665156250     112.682928000000
      7871    1       13.173840078124       8.209131218750     111.707316000000
      7872    1       14.560561312500       5.863665156250     113.658540000000
      7873    1        9.013679703124       5.863665156250     111.707316000000
      7874    1       10.400400937500       8.209131218750     113.658540000000
      7875    1       15.947282546876       8.209131218750     112.682928000000
      7876    1       11.787122171876       5.863665156250     112.682928000000
      7877    1       21.494160828124       8.209131218750     111.707316000000
      7878    1       22.880882062500       5.863665156250     113.658540000000
      7879    1       17.334000453124       5.863665156250     111.707316000000
      7880    1       18.720721687500       8.209131218750     113.658540000000
      7881    1       24.267603296876       8.209131218750     112.682928000000
      7882    1       20.107442921876       5.863665156250     112.682928000000
      7883    1       29.814481578124       8.209131218750     111.707316000000
      7884    1       31.201202812500       5.863665156250     113.658540000000
      7885    1       25.654321203124       5.863665156250     111.707316000000
      7886    1       27.041042437500       8.209131218750     113.658540000000
      7887    1       32.587924046876       8.209131218750     112.682928000000
      7888    1       28.427763671876       5.863665156250     112.682928000000
      7889    1        4.853519328124      12.900063343750     111.707316000000
      7890    1        6.240240562500      10.554597281250     113.658540000000
      7891    1        0.693359951562      10.554597281250     111.707316000000
      7892    1        2.080080187500      12.900063343750     113.658540000000
      7893    1        7.626961796876      12.900063343750     112.682928000000
      7894    1        3.466801421876      10.554597281250     112.682928000000
      7895    1       13.173840078124      12.900063343750     111.707316000000
      7896    1       14.560561312500      10.554597281250     113.658540000000
      7897    1        9.013679703124      10.554597281250     111.707316000000
      7898    1       10.400400937500      12.900063343750     113.658540000000
      7899    1       15.947282546876      12.900063343750     112.682928000000
      7900    1       11.787122171876      10.554597281250     112.682928000000
      7901    1       21.494160828124      12.900063343750     111.707316000000
      7902    1       22.880882062500      10.554597281250     113.658540000000
      7903    1       17.334000453124      10.554597281250     111.707316000000
      7904    1       18.720721687500      12.900063343750     113.658540000000
      7905    1       24.267603296876      12.900063343750     112.682928000000
      7906    1       20.107442921876      10.554597281250     112.682928000000
      7907    1       29.814481578124      12.900063343750     111.707316000000
      7908    1       31.201202812500      10.554597281250     113.658540000000
      7909    1       25.654321203124      10.554597281250     111.707316000000
      7910    1       27.041042437500      12.900063343750     113.658540000000
      7911    1       32.587924046876      12.900063343750     112.682928000000
      7912    1       28.427763671876      10.554597281250     112.682928000000
      7913    1        4.853519328124      17.590995468750     111.707316000000
      7914    1        6.240240562500      15.245529406250     113.658540000000
      7915    1        0.693359951562      15.245529406250     111.707316000000
      7916    1        2.080080187500      17.590995468750     113.658540000000
      7917    1        7.626961796876      17.590995468750     112.682928000000
      7918    1        3.466801421876      15.245529406250     112.682928000000
      7919    1       13.173840078124      17.590995468750     111.707316000000
      7920    1       14.560561312500      15.245529406250     113.658540000000
      7921    1        9.013679703124      15.245529406250     111.707316000000
      7922    1       10.400400937500      17.590995468750     113.658540000000
      7923    1       15.947282546876      17.590995468750     112.682928000000
      7924    1       11.787122171876      15.245529406250     112.682928000000
      7925    1       21.494160828124      17.590995468750     111.707316000000
      7926    1       22.880882062500      15.245529406250     113.658540000000
      7927    1       17.334000453124      15.245529406250     111.707316000000
      7928    1       18.720721687500      17.590995468750     113.658540000000
      7929    1       24.267603296876      17.590995468750     112.682928000000
      7930    1       20.107442921876      15.245529406250     112.682928000000
      7931    1       29.814481578124      17.590995468750     111.707316000000
      7932    1       31.201202812500      15.245529406250     113.658540000000
      7933    1       25.654321203124      15.245529406250     111.707316000000
      7934    1       27.041042437500      17.590995468750     113.658540000000
      7935    1       32.587924046876      17.590995468750     112.682928000000
      7936    1       28.427763671876      15.245529406250     112.682928000000
      7937    1        4.853519328124      22.281927593750     111.707316000000
      7938    1        6.240240562500      19.936461531250     113.658540000000
      7939    1        0.693359951562      19.936461531250     111.707316000000
      7940    1        2.080080187500      22.281927593750     113.658540000000
      7941    1        7.626961796876      22.281927593750     112.682928000000
      7942    1        3.466801421876      19.936461531250     112.682928000000
      7943    1       13.173840078124      22.281927593750     111.707316000000
      7944    1       14.560561312500      19.936461531250     113.658540000000
      7945    1        9.013679703124      19.936461531250     111.707316000000
      7946    1       10.400400937500      22.281927593750     113.658540000000
      7947    1       15.947282546876      22.281927593750     112.682928000000
      7948    1       11.787122171876      19.936461531250     112.682928000000
      7949    1       21.494160828124      22.281927593750     111.707316000000
      7950    1       22.880882062500      19.936461531250     113.658540000000
      7951    1       17.334000453124      19.936461531250     111.707316000000
      7952    1       18.720721687500      22.281927593750     113.658540000000
      7953    1       24.267603296876      22.281927593750     112.682928000000
      7954    1       20.107442921876      19.936461531250     112.682928000000
      7955    1       29.814481578124      22.281927593750     111.707316000000
      7956    1       31.201202812500      19.936461531250     113.658540000000
      7957    1       25.654321203124      19.936461531250     111.707316000000
      7958    1       27.041042437500      22.281927593750     113.658540000000
      7959    1       32.587924046876      22.281927593750     112.682928000000
      7960    1       28.427763671876      19.936461531250     112.682928000000
      7961    1        4.853519328124      26.972859718750     111.707316000000
      7962    1        6.240240562500      24.627393656250     113.658540000000
      7963    1        0.693359951562      24.627393656250     111.707316000000
      7964    1        2.080080187500      26.972859718750     113.658540000000
      7965    1        7.626961796876      26.972859718750     112.682928000000
      7966    1        3.466801421876      24.627393656250     112.682928000000
      7967    1       13.173840078124      26.972859718750     111.707316000000
      7968    1       14.560561312500      24.627393656250     113.658540000000
      7969    1        9.013679703124      24.627393656250     111.707316000000
      7970    1       10.400400937500      26.972859718750     113.658540000000
      7971    1       15.947282546876      26.972859718750     112.682928000000
      7972    1       11.787122171876      24.627393656250     112.682928000000
      7973    1       21.494160828124      26.972859718750     111.707316000000
      7974    1       22.880882062500      24.627393656250     113.658540000000
      7975    1       17.334000453124      24.627393656250     111.707316000000
      7976    1       18.720721687500      26.972859718750     113.658540000000
      7977    1       24.267603296876      26.972859718750     112.682928000000
      7978    1       20.107442921876      24.627393656250     112.682928000000
      7979    1       29.814481578124      26.972859718750     111.707316000000
      7980    1       31.201202812500      24.627393656250     113.658540000000
      7981    1       25.654321203124      24.627393656250     111.707316000000
      7982    1       27.041042437500      26.972859718750     113.658540000000
      7983    1       32.587924046876      26.972859718750     112.682928000000
      7984    1       28.427763671876      24.627393656250     112.682928000000
      7985    1        4.853519328124      31.663791843750     111.707316000000
      7986    1        6.240240562500      29.318325781250     113.658540000000
      7987    1        0.693359951562      29.318325781250     111.707316000000
      7988    1        2.080080187500      31.663791843750     113.658540000000
      7989    1        7.626961796876      31.663791843750     112.682928000000
      7990    1        3.466801421876      29.318325781250     112.682928000000
      7991    1       13.173840078124      31.663791843750     111.707316000000
      7992    1       14.560561312500      29.318325781250     113.658540000000
      7993    1        9.013679703124      29.318325781250     111.707316000000
      7994    1       10.400400937500      31.663791843750     113.658540000000
      7995    1       15.947282546876      31.663791843750     112.682928000000
      7996    1       11.787122171876      29.318325781250     112.682928000000
      7997    1       21.494160828124      31.663791843750     111.707316000000
      7998    1       22.880882062500      29.318325781250     113.658540000000
      7999    1       17.334000453124      29.318325781250     111.707316000000
      8000    1       18.720721687500      31.663791843750     113.658540000000
      8001    1       24.267603296876      31.663791843750     112.682928000000
      8002    1       20.107442921876      29.318325781250     112.682928000000
      8003    1       29.814481578124      31.663791843750     111.707316000000
      8004    1       31.201202812500      29.318325781250     113.658540000000
      8005    1       25.654321203124      29.318325781250     111.707316000000
      8006    1       27.041042437500      31.663791843750     113.658540000000
      8007    1       32.587924046876      31.663791843750     112.682928000000
      8008    1       28.427763671876      29.318325781250     112.682928000000
      8009    1        4.853519328124      36.354723968750     111.707316000000
      8010    1        6.240240562500      34.009257906250     113.658540000000
      8011    1        0.693359951562      34.009257906250     111.707316000000
      8012    1        2.080080187500      36.354723968750     113.658540000000
      8013    1        7.626961796876      36.354723968750     112.682928000000
      8014    1        3.466801421876      34.009257906250     112.682928000000
      8015    1       13.173840078124      36.354723968750     111.707316000000
      8016    1       14.560561312500      34.009257906250     113.658540000000
      8017    1        9.013679703124      34.009257906250     111.707316000000
      8018    1       10.400400937500      36.354723968750     113.658540000000
      8019    1       15.947282546876      36.354723968750     112.682928000000
      8020    1       11.787122171876      34.009257906250     112.682928000000
      8021    1       21.494160828124      36.354723968750     111.707316000000
      8022    1       22.880882062500      34.009257906250     113.658540000000
      8023    1       17.334000453124      34.009257906250     111.707316000000
      8024    1       18.720721687500      36.354723968750     113.658540000000
      8025    1       24.267603296876      36.354723968750     112.682928000000
      8026    1       20.107442921876      34.009257906250     112.682928000000
      8027    1       29.814481578124      36.354723968750     111.707316000000
      8028    1       31.201202812500      34.009257906250     113.658540000000
      8029    1       25.654321203124      34.009257906250     111.707316000000
      8030    1       27.041042437500      36.354723968750     113.658540000000
      8031    1       32.587924046876      36.354723968750     112.682928000000
      8032    1       28.427763671876      34.009257906250     112.682928000000
      8033    1        4.853519328124       3.518199093750     114.634152000000
      8034    1        6.240240562500       1.172733031250     116.585364000000
      8035    1        0.693359951562       1.172733031250     114.634152000000
      8036    1        2.080080187500       3.518199093750     116.585364000000
      8037    1        7.626961796876       3.518199093750     115.609752000000
      8038    1        3.466801421876       1.172733031250     115.609752000000
      8039    1       13.173840078124       3.518199093750     114.634152000000
      8040    1       14.560561312500       1.172733031250     116.585364000000
      8041    1        9.013679703124       1.172733031250     114.634152000000
      8042    1       10.400400937500       3.518199093750     116.585364000000
      8043    1       15.947282546876       3.518199093750     115.609752000000
      8044    1       11.787122171876       1.172733031250     115.609752000000
      8045    1       21.494160828124       3.518199093750     114.634152000000
      8046    1       22.880882062500       1.172733031250     116.585364000000
      8047    1       17.334000453124       1.172733031250     114.634152000000
      8048    1       18.720721687500       3.518199093750     116.585364000000
      8049    1       24.267603296876       3.518199093750     115.609752000000
      8050    1       20.107442921876       1.172733031250     115.609752000000
      8051    1       29.814481578124       3.518199093750     114.634152000000
      8052    1       31.201202812500       1.172733031250     116.585364000000
      8053    1       25.654321203124       1.172733031250     114.634152000000
      8054    1       27.041042437500       3.518199093750     116.585364000000
      8055    1       32.587924046876       3.518199093750     115.609752000000
      8056    1       28.427763671876       1.172733031250     115.609752000000
      8057    1        4.853519328124       8.209131218750     114.634152000000
      8058    1        6.240240562500       5.863665156250     116.585364000000
      8059    1        0.693359951562       5.863665156250     114.634152000000
      8060    1        2.080080187500       8.209131218750     116.585364000000
      8061    1        7.626961796876       8.209131218750     115.609752000000
      8062    1        3.466801421876       5.863665156250     115.609752000000
      8063    1       13.173840078124       8.209131218750     114.634152000000
      8064    1       14.560561312500       5.863665156250     116.585364000000
      8065    1        9.013679703124       5.863665156250     114.634152000000
      8066    1       10.400400937500       8.209131218750     116.585364000000
      8067    1       15.947282546876       8.209131218750     115.609752000000
      8068    1       11.787122171876       5.863665156250     115.609752000000
      8069    1       21.494160828124       8.209131218750     114.634152000000
      8070    1       22.880882062500       5.863665156250     116.585364000000
      8071    1       17.334000453124       5.863665156250     114.634152000000
      8072    1       18.720721687500       8.209131218750     116.585364000000
      8073    1       24.267603296876       8.209131218750     115.609752000000
      8074    1       20.107442921876       5.863665156250     115.609752000000
      8075    1       29.814481578124       8.209131218750     114.634152000000
      8076    1       31.201202812500       5.863665156250     116.585364000000
      8077    1       25.654321203124       5.863665156250     114.634152000000
      8078    1       27.041042437500       8.209131218750     116.585364000000
      8079    1       32.587924046876       8.209131218750     115.609752000000
      8080    1       28.427763671876       5.863665156250     115.609752000000
      8081    1        4.853519328124      12.900063343750     114.634152000000
      8082    1        6.240240562500      10.554597281250     116.585364000000
      8083    1        0.693359951562      10.554597281250     114.634152000000
      8084    1        2.080080187500      12.900063343750     116.585364000000
      8085    1        7.626961796876      12.900063343750     115.609752000000
      8086    1        3.466801421876      10.554597281250     115.609752000000
      8087    1       13.173840078124      12.900063343750     114.634152000000
      8088    1       14.560561312500      10.554597281250     116.585364000000
      8089    1        9.013679703124      10.554597281250     114.634152000000
      8090    1       10.400400937500      12.900063343750     116.585364000000
      8091    1       15.947282546876      12.900063343750     115.609752000000
      8092    1       11.787122171876      10.554597281250     115.609752000000
      8093    1       21.494160828124      12.900063343750     114.634152000000
      8094    1       22.880882062500      10.554597281250     116.585364000000
      8095    1       17.334000453124      10.554597281250     114.634152000000
      8096    1       18.720721687500      12.900063343750     116.585364000000
      8097    1       24.267603296876      12.900063343750     115.609752000000
      8098    1       20.107442921876      10.554597281250     115.609752000000
      8099    1       29.814481578124      12.900063343750     114.634152000000
      8100    1       31.201202812500      10.554597281250     116.585364000000
      8101    1       25.654321203124      10.554597281250     114.634152000000
      8102    1       27.041042437500      12.900063343750     116.585364000000
      8103    1       32.587924046876      12.900063343750     115.609752000000
      8104    1       28.427763671876      10.554597281250     115.609752000000
      8105    1        4.853519328124      17.590995468750     114.634152000000
      8106    1        6.240240562500      15.245529406250     116.585364000000
      8107    1        0.693359951562      15.245529406250     114.634152000000
      8108    1        2.080080187500      17.590995468750     116.585364000000
      8109    1        7.626961796876      17.590995468750     115.609752000000
      8110    1        3.466801421876      15.245529406250     115.609752000000
      8111    1       13.173840078124      17.590995468750     114.634152000000
      8112    1       14.560561312500      15.245529406250     116.585364000000
      8113    1        9.013679703124      15.245529406250     114.634152000000
      8114    1       10.400400937500      17.590995468750     116.585364000000
      8115    1       15.947282546876      17.590995468750     115.609752000000
      8116    1       11.787122171876      15.245529406250     115.609752000000
      8117    1       21.494160828124      17.590995468750     114.634152000000
      8118    1       22.880882062500      15.245529406250     116.585364000000
      8119    1       17.334000453124      15.245529406250     114.634152000000
      8120    1       18.720721687500      17.590995468750     116.585364000000
      8121    1       24.267603296876      17.590995468750     115.609752000000
      8122    1       20.107442921876      15.245529406250     115.609752000000
      8123    1       29.814481578124      17.590995468750     114.634152000000
      8124    1       31.201202812500      15.245529406250     116.585364000000
      8125    1       25.654321203124      15.245529406250     114.634152000000
      8126    1       27.041042437500      17.590995468750     116.585364000000
      8127    1       32.587924046876      17.590995468750     115.609752000000
      8128    1       28.427763671876      15.245529406250     115.609752000000
      8129    1        4.853519328124      22.281927593750     114.634152000000
      8130    1        6.240240562500      19.936461531250     116.585364000000
      8131    1        0.693359951562      19.936461531250     114.634152000000
      8132    1        2.080080187500      22.281927593750     116.585364000000
      8133    1        7.626961796876      22.281927593750     115.609752000000
      8134    1        3.466801421876      19.936461531250     115.609752000000
      8135    1       13.173840078124      22.281927593750     114.634152000000
      8136    1       14.560561312500      19.936461531250     116.585364000000
      8137    1        9.013679703124      19.936461531250     114.634152000000
      8138    1       10.400400937500      22.281927593750     116.585364000000
      8139    1       15.947282546876      22.281927593750     115.609752000000
      8140    1       11.787122171876      19.936461531250     115.609752000000
      8141    1       21.494160828124      22.281927593750     114.634152000000
      8142    1       22.880882062500      19.936461531250     116.585364000000
      8143    1       17.334000453124      19.936461531250     114.634152000000
      8144    1       18.720721687500      22.281927593750     116.585364000000
      8145    1       24.267603296876      22.281927593750     115.609752000000
      8146    1       20.107442921876      19.936461531250     115.609752000000
      8147    1       29.814481578124      22.281927593750     114.634152000000
      8148    1       31.201202812500      19.936461531250     116.585364000000
      8149    1       25.654321203124      19.936461531250     114.634152000000
      8150    1       27.041042437500      22.281927593750     116.585364000000
      8151    1       32.587924046876      22.281927593750     115.609752000000
      8152    1       28.427763671876      19.936461531250     115.609752000000
      8153    1        4.853519328124      26.972859718750     114.634152000000
      8154    1        6.240240562500      24.627393656250     116.585364000000
      8155    1        0.693359951562      24.627393656250     114.634152000000
      8156    1        2.080080187500      26.972859718750     116.585364000000
      8157    1        7.626961796876      26.972859718750     115.609752000000
      8158    1        3.466801421876      24.627393656250     115.609752000000
      8159    1       13.173840078124      26.972859718750     114.634152000000
      8160    1       14.560561312500      24.627393656250     116.585364000000
      8161    1        9.013679703124      24.627393656250     114.634152000000
      8162    1       10.400400937500      26.972859718750     116.585364000000
      8163    1       15.947282546876      26.972859718750     115.609752000000
      8164    1       11.787122171876      24.627393656250     115.609752000000
      8165    1       21.494160828124      26.972859718750     114.634152000000
      8166    1       22.880882062500      24.627393656250     116.585364000000
      8167    1       17.334000453124      24.627393656250     114.634152000000
      8168    1       18.720721687500      26.972859718750     116.585364000000
      8169    1       24.267603296876      26.972859718750     115.609752000000
      8170    1       20.107442921876      24.627393656250     115.609752000000
      8171    1       29.814481578124      26.972859718750     114.634152000000
      8172    1       31.201202812500      24.627393656250     116.585364000000
      8173    1       25.654321203124      24.627393656250     114.634152000000
      8174    1       27.041042437500      26.972859718750     116.585364000000
      8175    1       32.587924046876      26.972859718750     115.609752000000
      8176    1       28.427763671876      24.627393656250     115.609752000000
      8177    1        4.853519328124      31.663791843750     114.634152000000
      8178    1        6.240240562500      29.318325781250     116.585364000000
      8179    1        0.693359951562      29.318325781250     114.634152000000
      8180    1        2.080080187500      31.663791843750     116.585364000000
      8181    1        7.626961796876      31.663791843750     115.609752000000
      8182    1        3.466801421876      29.318325781250     115.609752000000
      8183    1       13.173840078124      31.663791843750     114.634152000000
      8184    1       14.560561312500      29.318325781250     116.585364000000
      8185    1        9.013679703124      29.318325781250     114.634152000000
      8186    1       10.400400937500      31.663791843750     116.585364000000
      8187    1       15.947282546876      31.663791843750     115.609752000000
      8188    1       11.787122171876      29.318325781250     115.609752000000
      8189    1       21.494160828124      31.663791843750     114.634152000000
      8190    1       22.880882062500      29.318325781250     116.585364000000
      8191    1       17.334000453124      29.318325781250     114.634152000000
      8192    1       18.720721687500      31.663791843750     116.585364000000
      8193    1       24.267603296876      31.663791843750     115.609752000000
      8194    1       20.107442921876      29.318325781250     115.609752000000
      8195    1       29.814481578124      31.663791843750     114.634152000000
      8196    1       31.201202812500      29.318325781250     116.585364000000
      8197    1       25.654321203124      29.318325781250     114.634152000000
      8198    1       27.041042437500      31.663791843750     116.585364000000
      8199    1       32.587924046876      31.663791843750     115.609752000000
      8200    1       28.427763671876      29.318325781250     115.609752000000
      8201    1        4.853519328124      36.354723968750     114.634152000000
      8202    1        6.240240562500      34.009257906250     116.585364000000
      8203    1        0.693359951562      34.009257906250     114.634152000000
      8204    1        2.080080187500      36.354723968750     116.585364000000
      8205    1        7.626961796876      36.354723968750     115.609752000000
      8206    1        3.466801421876      34.009257906250     115.609752000000
      8207    1       13.173840078124      36.354723968750     114.634152000000
      8208    1       14.560561312500      34.009257906250     116.585364000000
      8209    1        9.013679703124      34.009257906250     114.634152000000
      8210    1       10.400400937500      36.354723968750     116.585364000000
      8211    1       15.947282546876      36.354723968750     115.609752000000
      8212    1       11.787122171876      34.009257906250     115.609752000000
      8213    1       21.494160828124      36.354723968750     114.634152000000
      8214    1       22.880882062500      34.009257906250     116.585364000000
      8215    1       17.334000453124      34.009257906250     114.634152000000
      8216    1       18.720721687500      36.354723968750     116.585364000000
      8217    1       24.267603296876      36.354723968750     115.609752000000
      8218    1       20.107442921876      34.009257906250     115.609752000000
      8219    1       29.814481578124      36.354723968750     114.634152000000
      8220    1       31.201202812500      34.009257906250     116.585364000000
      8221    1       25.654321203124      34.009257906250     114.634152000000
      8222    1       27.041042437500      36.354723968750     116.585364000000
      8223    1       32.587924046876      36.354723968750     115.609752000000
      8224    1       28.427763671876      34.009257906250     115.609752000000
      8225    1        4.853519328124       3.518199093750     117.560976000000
      8226    1        6.240240562500       1.172733031250     119.512200000000
      8227    1        0.693359951562       1.172733031250     117.560976000000
      8228    1        2.080080187500       3.518199093750     119.512200000000
      8229    1        7.626961796876       3.518199093750     118.536588000000
      8230    1        3.466801421876       1.172733031250     118.536588000000
      8231    1       13.173840078124       3.518199093750     117.560976000000
      8232    1       14.560561312500       1.172733031250     119.512200000000
      8233    1        9.013679703124       1.172733031250     117.560976000000
      8234    1       10.400400937500       3.518199093750     119.512200000000
      8235    1       15.947282546876       3.518199093750     118.536588000000
      8236    1       11.787122171876       1.172733031250     118.536588000000
      8237    1       21.494160828124       3.518199093750     117.560976000000
      8238    1       22.880882062500       1.172733031250     119.512200000000
      8239    1       17.334000453124       1.172733031250     117.560976000000
      8240    1       18.720721687500       3.518199093750     119.512200000000
      8241    1       24.267603296876       3.518199093750     118.536588000000
      8242    1       20.107442921876       1.172733031250     118.536588000000
      8243    1       29.814481578124       3.518199093750     117.560976000000
      8244    1       31.201202812500       1.172733031250     119.512200000000
      8245    1       25.654321203124       1.172733031250     117.560976000000
      8246    1       27.041042437500       3.518199093750     119.512200000000
      8247    1       32.587924046876       3.518199093750     118.536588000000
      8248    1       28.427763671876       1.172733031250     118.536588000000
      8249    1        4.853519328124       8.209131218750     117.560976000000
      8250    1        6.240240562500       5.863665156250     119.512200000000
      8251    1        0.693359951562       5.863665156250     117.560976000000
      8252    1        2.080080187500       8.209131218750     119.512200000000
      8253    1        7.626961796876       8.209131218750     118.536588000000
      8254    1        3.466801421876       5.863665156250     118.536588000000
      8255    1       13.173840078124       8.209131218750     117.560976000000
      8256    1       14.560561312500       5.863665156250     119.512200000000
      8257    1        9.013679703124       5.863665156250     117.560976000000
      8258    1       10.400400937500       8.209131218750     119.512200000000
      8259    1       15.947282546876       8.209131218750     118.536588000000
      8260    1       11.787122171876       5.863665156250     118.536588000000
      8261    1       21.494160828124       8.209131218750     117.560976000000
      8262    1       22.880882062500       5.863665156250     119.512200000000
      8263    1       17.334000453124       5.863665156250     117.560976000000
      8264    1       18.720721687500       8.209131218750     119.512200000000
      8265    1       24.267603296876       8.209131218750     118.536588000000
      8266    1       20.107442921876       5.863665156250     118.536588000000
      8267    1       29.814481578124       8.209131218750     117.560976000000
      8268    1       31.201202812500       5.863665156250     119.512200000000
      8269    1       25.654321203124       5.863665156250     117.560976000000
      8270    1       27.041042437500       8.209131218750     119.512200000000
      8271    1       32.587924046876       8.209131218750     118.536588000000
      8272    1       28.427763671876       5.863665156250     118.536588000000
      8273    1        4.853519328124      12.900063343750     117.560976000000
      8274    1        6.240240562500      10.554597281250     119.512200000000
      8275    1        0.693359951562      10.554597281250     117.560976000000
      8276    1        2.080080187500      12.900063343750     119.512200000000
      8277    1        7.626961796876      12.900063343750     118.536588000000
      8278    1        3.466801421876      10.554597281250     118.536588000000
      8279    1       13.173840078124      12.900063343750     117.560976000000
      8280    1       14.560561312500      10.554597281250     119.512200000000
      8281    1        9.013679703124      10.554597281250     117.560976000000
      8282    1       10.400400937500      12.900063343750     119.512200000000
      8283    1       15.947282546876      12.900063343750     118.536588000000
      8284    1       11.787122171876      10.554597281250     118.536588000000
      8285    1       21.494160828124      12.900063343750     117.560976000000
      8286    1       22.880882062500      10.554597281250     119.512200000000
      8287    1       17.334000453124      10.554597281250     117.560976000000
      8288    1       18.720721687500      12.900063343750     119.512200000000
      8289    1       24.267603296876      12.900063343750     118.536588000000
      8290    1       20.107442921876      10.554597281250     118.536588000000
      8291    1       29.814481578124      12.900063343750     117.560976000000
      8292    1       31.201202812500      10.554597281250     119.512200000000
      8293    1       25.654321203124      10.554597281250     117.560976000000
      8294    1       27.041042437500      12.900063343750     119.512200000000
      8295    1       32.587924046876      12.900063343750     118.536588000000
      8296    1       28.427763671876      10.554597281250     118.536588000000
      8297    1        4.853519328124      17.590995468750     117.560976000000
      8298    1        6.240240562500      15.245529406250     119.512200000000
      8299    1        0.693359951562      15.245529406250     117.560976000000
      8300    1        2.080080187500      17.590995468750     119.512200000000
      8301    1        7.626961796876      17.590995468750     118.536588000000
      8302    1        3.466801421876      15.245529406250     118.536588000000
      8303    1       13.173840078124      17.590995468750     117.560976000000
      8304    1       14.560561312500      15.245529406250     119.512200000000
      8305    1        9.013679703124      15.245529406250     117.560976000000
      8306    1       10.400400937500      17.590995468750     119.512200000000
      8307    1       15.947282546876      17.590995468750     118.536588000000
      8308    1       11.787122171876      15.245529406250     118.536588000000
      8309    1       21.494160828124      17.590995468750     117.560976000000
      8310    1       22.880882062500      15.245529406250     119.512200000000
      8311    1       17.334000453124      15.245529406250     117.560976000000
      8312    1       18.720721687500      17.590995468750     119.512200000000
      8313    1       24.267603296876      17.590995468750     118.536588000000
      8314    1       20.107442921876      15.245529406250     118.536588000000
      8315    1       29.814481578124      17.590995468750     117.560976000000
      8316    1       31.201202812500      15.245529406250     119.512200000000
      8317    1       25.654321203124      15.245529406250     117.560976000000
      8318    1       27.041042437500      17.590995468750     119.512200000000
      8319    1       32.587924046876      17.590995468750     118.536588000000
      8320    1       28.427763671876      15.245529406250     118.536588000000
      8321    1        4.853519328124      22.281927593750     117.560976000000
      8322    1        6.240240562500      19.936461531250     119.512200000000
      8323    1        0.693359951562      19.936461531250     117.560976000000
      8324    1        2.080080187500      22.281927593750     119.512200000000
      8325    1        7.626961796876      22.281927593750     118.536588000000
      8326    1        3.466801421876      19.936461531250     118.536588000000
      8327    1       13.173840078124      22.281927593750     117.560976000000
      8328    1       14.560561312500      19.936461531250     119.512200000000
      8329    1        9.013679703124      19.936461531250     117.560976000000
      8330    1       10.400400937500      22.281927593750     119.512200000000
      8331    1       15.947282546876      22.281927593750     118.536588000000
      8332    1       11.787122171876      19.936461531250     118.536588000000
      8333    1       21.494160828124      22.281927593750     117.560976000000
      8334    1       22.880882062500      19.936461531250     119.512200000000
      8335    1       17.334000453124      19.936461531250     117.560976000000
      8336    1       18.720721687500      22.281927593750     119.512200000000
      8337    1       24.267603296876      22.281927593750     118.536588000000
      8338    1       20.107442921876      19.936461531250     118.536588000000
      8339    1       29.814481578124      22.281927593750     117.560976000000
      8340    1       31.201202812500      19.936461531250     119.512200000000
      8341    1       25.654321203124      19.936461531250     117.560976000000
      8342    1       27.041042437500      22.281927593750     119.512200000000
      8343    1       32.587924046876      22.281927593750     118.536588000000
      8344    1       28.427763671876      19.936461531250     118.536588000000
      8345    1        4.853519328124      26.972859718750     117.560976000000
      8346    1        6.240240562500      24.627393656250     119.512200000000
      8347    1        0.693359951562      24.627393656250     117.560976000000
      8348    1        2.080080187500      26.972859718750     119.512200000000
      8349    1        7.626961796876      26.972859718750     118.536588000000
      8350    1        3.466801421876      24.627393656250     118.536588000000
      8351    1       13.173840078124      26.972859718750     117.560976000000
      8352    1       14.560561312500      24.627393656250     119.512200000000
      8353    1        9.013679703124      24.627393656250     117.560976000000
      8354    1       10.400400937500      26.972859718750     119.512200000000
      8355    1       15.947282546876      26.972859718750     118.536588000000
      8356    1       11.787122171876      24.627393656250     118.536588000000
      8357    1       21.494160828124      26.972859718750     117.560976000000
      8358    1       22.880882062500      24.627393656250     119.512200000000
      8359    1       17.334000453124      24.627393656250     117.560976000000
      8360    1       18.720721687500      26.972859718750     119.512200000000
      8361    1       24.267603296876      26.972859718750     118.536588000000
      8362    1       20.107442921876      24.627393656250     118.536588000000
      8363    1       29.814481578124      26.972859718750     117.560976000000
      8364    1       31.201202812500      24.627393656250     119.512200000000
      8365    1       25.654321203124      24.627393656250     117.560976000000
      8366    1       27.041042437500      26.972859718750     119.512200000000
      8367    1       32.587924046876      26.972859718750     118.536588000000
      8368    1       28.427763671876      24.627393656250     118.536588000000
      8369    1        4.853519328124      31.663791843750     117.560976000000
      8370    1        6.240240562500      29.318325781250     119.512200000000
      8371    1        0.693359951562      29.318325781250     117.560976000000
      8372    1        2.080080187500      31.663791843750     119.512200000000
      8373    1        7.626961796876      31.663791843750     118.536588000000
      8374    1        3.466801421876      29.318325781250     118.536588000000
      8375    1       13.173840078124      31.663791843750     117.560976000000
      8376    1       14.560561312500      29.318325781250     119.512200000000
      8377    1        9.013679703124      29.318325781250     117.560976000000
      8378    1       10.400400937500      31.663791843750     119.512200000000
      8379    1       15.947282546876      31.663791843750     118.536588000000
      8380    1       11.787122171876      29.318325781250     118.536588000000
      8381    1       21.494160828124      31.663791843750     117.560976000000
      8382    1       22.880882062500      29.318325781250     119.512200000000
      8383    1       17.334000453124      29.318325781250     117.560976000000
      8384    1       18.720721687500      31.663791843750     119.512200000000
      8385    1       24.267603296876      31.663791843750     118.536588000000
      8386    1       20.107442921876      29.318325781250     118.536588000000
      8387    1       29.814481578124      31.663791843750     117.560976000000
      8388    1       31.201202812500      29.318325781250     119.512200000000
      8389    1       25.654321203124      29.318325781250     117.560976000000
      8390    1       27.041042437500      31.663791843750     119.512200000000
      8391    1       32.587924046876      31.663791843750     118.536588000000
      8392    1       28.427763671876      29.318325781250     118.536588000000
      8393    1        4.853519328124      36.354723968750     117.560976000000
      8394    1        6.240240562500      34.009257906250     119.512200000000
      8395    1        0.693359951562      34.009257906250     117.560976000000
      8396    1        2.080080187500      36.354723968750     119.512200000000
      8397    1        7.626961796876      36.354723968750     118.536588000000
      8398    1        3.466801421876      34.009257906250     118.536588000000
      8399    1       13.173840078124      36.354723968750     117.560976000000
      8400    1       14.560561312500      34.009257906250     119.512200000000
      8401    1        9.013679703124      34.009257906250     117.560976000000
      8402    1       10.400400937500      36.354723968750     119.512200000000
      8403    1       15.947282546876      36.354723968750     118.536588000000
      8404    1       11.787122171876      34.009257906250     118.536588000000
      8405    1       21.494160828124      36.354723968750     117.560976000000
      8406    1       22.880882062500      34.009257906250     119.512200000000
      8407    1       17.334000453124      34.009257906250     117.560976000000
      8408    1       18.720721687500      36.354723968750     119.512200000000
      8409    1       24.267603296876      36.354723968750     118.536588000000
      8410    1       20.107442921876      34.009257906250     118.536588000000
      8411    1       29.814481578124      36.354723968750     117.560976000000
      8412    1       31.201202812500      34.009257906250     119.512200000000
      8413    1       25.654321203124      34.009257906250     117.560976000000
      8414    1       27.041042437500      36.354723968750     119.512200000000
      8415    1       32.587924046876      36.354723968750     118.536588000000
      8416    1       28.427763671876      34.009257906250     118.536588000000
